*Heading
** Job name: Job-H-1_2 Model name: Model-1
** Generated by: Abaqus/CAE 2023
*Preprint, echo=NO, model=NO, history=NO, contact=NO
**
** PARTS
**
*Part, name=Block
*Node
      1,          0.5,           0.,  0.150000006
      2,  0.428571433,           0.,  0.150000006
      3,  0.357142866,           0.,  0.150000006
      4,  0.285714298,           0.,  0.150000006
      5,  0.214285716,           0.,  0.150000006
      6,  0.142857149,           0.,  0.150000006
      7, 0.0714285746,           0.,  0.150000006
      8,           0.,           0.,  0.150000006
      9,          0.5,           0.,  0.075000003
     10,  0.428571433,           0.,  0.075000003
     11,  0.357142866,           0.,  0.075000003
     12,  0.285714298,           0.,  0.075000003
     13,  0.214285716,           0.,  0.075000003
     14,  0.142857149,           0.,  0.075000003
     15, 0.0714285746,           0.,  0.075000003
     16,           0.,           0.,  0.075000003
     17,          0.5,           0.,           0.
     18,  0.428571433,           0.,           0.
     19,  0.357142866,           0.,           0.
     20,  0.285714298,           0.,           0.
     21,  0.214285716,           0.,           0.
     22,  0.142857149,           0.,           0.
     23, 0.0714285746,           0.,           0.
     24,           0.,           0.,           0.
     25,          0.5, 0.0714285746,  0.150000006
     26,  0.428571433, 0.0714285746,  0.150000006
     27,  0.357142866, 0.0714285746,  0.150000006
     28,  0.285714298, 0.0714285746,  0.150000006
     29,  0.214285716, 0.0714285746,  0.150000006
     30,  0.142857149, 0.0714285746,  0.150000006
     31, 0.0714285746, 0.0714285746,  0.150000006
     32,           0., 0.0714285746,  0.150000006
     33,          0.5, 0.0714285746,  0.075000003
     34,  0.428571433, 0.0714285746,  0.075000003
     35,  0.357142866, 0.0714285746,  0.075000003
     36,  0.285714298, 0.0714285746,  0.075000003
     37,  0.214285716, 0.0714285746,  0.075000003
     38,  0.142857149, 0.0714285746,  0.075000003
     39, 0.0714285746, 0.0714285746,  0.075000003
     40,           0., 0.0714285746,  0.075000003
     41,          0.5, 0.0714285746,           0.
     42,  0.428571433, 0.0714285746,           0.
     43,  0.357142866, 0.0714285746,           0.
     44,  0.285714298, 0.0714285746,           0.
     45,  0.214285716, 0.0714285746,           0.
     46,  0.142857149, 0.0714285746,           0.
     47, 0.0714285746, 0.0714285746,           0.
     48,           0., 0.0714285746,           0.
     49,          0.5,  0.142857149,  0.150000006
     50,  0.428571433,  0.142857149,  0.150000006
     51,  0.357142866,  0.142857149,  0.150000006
     52,  0.285714298,  0.142857149,  0.150000006
     53,  0.214285716,  0.142857149,  0.150000006
     54,  0.142857149,  0.142857149,  0.150000006
     55, 0.0714285746,  0.142857149,  0.150000006
     56,           0.,  0.142857149,  0.150000006
     57,          0.5,  0.142857149,  0.075000003
     58,  0.428571433,  0.142857149,  0.075000003
     59,  0.357142866,  0.142857149,  0.075000003
     60,  0.285714298,  0.142857149,  0.075000003
     61,  0.214285716,  0.142857149,  0.075000003
     62,  0.142857149,  0.142857149,  0.075000003
     63, 0.0714285746,  0.142857149,  0.075000003
     64,           0.,  0.142857149,  0.075000003
     65,          0.5,  0.142857149,           0.
     66,  0.428571433,  0.142857149,           0.
     67,  0.357142866,  0.142857149,           0.
     68,  0.285714298,  0.142857149,           0.
     69,  0.214285716,  0.142857149,           0.
     70,  0.142857149,  0.142857149,           0.
     71, 0.0714285746,  0.142857149,           0.
     72,           0.,  0.142857149,           0.
     73,          0.5,  0.214285716,  0.150000006
     74,  0.428571433,  0.214285716,  0.150000006
     75,  0.357142866,  0.214285716,  0.150000006
     76,  0.285714298,  0.214285716,  0.150000006
     77,  0.214285716,  0.214285716,  0.150000006
     78,  0.142857149,  0.214285716,  0.150000006
     79, 0.0714285746,  0.214285716,  0.150000006
     80,           0.,  0.214285716,  0.150000006
     81,          0.5,  0.214285716,  0.075000003
     82,  0.428571433,  0.214285716,  0.075000003
     83,  0.357142866,  0.214285716,  0.075000003
     84,  0.285714298,  0.214285716,  0.075000003
     85,  0.214285716,  0.214285716,  0.075000003
     86,  0.142857149,  0.214285716,  0.075000003
     87, 0.0714285746,  0.214285716,  0.075000003
     88,           0.,  0.214285716,  0.075000003
     89,          0.5,  0.214285716,           0.
     90,  0.428571433,  0.214285716,           0.
     91,  0.357142866,  0.214285716,           0.
     92,  0.285714298,  0.214285716,           0.
     93,  0.214285716,  0.214285716,           0.
     94,  0.142857149,  0.214285716,           0.
     95, 0.0714285746,  0.214285716,           0.
     96,           0.,  0.214285716,           0.
     97,          0.5,  0.285714298,  0.150000006
     98,  0.428571433,  0.285714298,  0.150000006
     99,  0.357142866,  0.285714298,  0.150000006
    100,  0.285714298,  0.285714298,  0.150000006
    101,  0.214285716,  0.285714298,  0.150000006
    102,  0.142857149,  0.285714298,  0.150000006
    103, 0.0714285746,  0.285714298,  0.150000006
    104,           0.,  0.285714298,  0.150000006
    105,          0.5,  0.285714298,  0.075000003
    106,  0.428571433,  0.285714298,  0.075000003
    107,  0.357142866,  0.285714298,  0.075000003
    108,  0.285714298,  0.285714298,  0.075000003
    109,  0.214285716,  0.285714298,  0.075000003
    110,  0.142857149,  0.285714298,  0.075000003
    111, 0.0714285746,  0.285714298,  0.075000003
    112,           0.,  0.285714298,  0.075000003
    113,          0.5,  0.285714298,           0.
    114,  0.428571433,  0.285714298,           0.
    115,  0.357142866,  0.285714298,           0.
    116,  0.285714298,  0.285714298,           0.
    117,  0.214285716,  0.285714298,           0.
    118,  0.142857149,  0.285714298,           0.
    119, 0.0714285746,  0.285714298,           0.
    120,           0.,  0.285714298,           0.
    121,          0.5,  0.357142866,  0.150000006
    122,  0.428571433,  0.357142866,  0.150000006
    123,  0.357142866,  0.357142866,  0.150000006
    124,  0.285714298,  0.357142866,  0.150000006
    125,  0.214285716,  0.357142866,  0.150000006
    126,  0.142857149,  0.357142866,  0.150000006
    127, 0.0714285746,  0.357142866,  0.150000006
    128,           0.,  0.357142866,  0.150000006
    129,          0.5,  0.357142866,  0.075000003
    130,  0.428571433,  0.357142866,  0.075000003
    131,  0.357142866,  0.357142866,  0.075000003
    132,  0.285714298,  0.357142866,  0.075000003
    133,  0.214285716,  0.357142866,  0.075000003
    134,  0.142857149,  0.357142866,  0.075000003
    135, 0.0714285746,  0.357142866,  0.075000003
    136,           0.,  0.357142866,  0.075000003
    137,          0.5,  0.357142866,           0.
    138,  0.428571433,  0.357142866,           0.
    139,  0.357142866,  0.357142866,           0.
    140,  0.285714298,  0.357142866,           0.
    141,  0.214285716,  0.357142866,           0.
    142,  0.142857149,  0.357142866,           0.
    143, 0.0714285746,  0.357142866,           0.
    144,           0.,  0.357142866,           0.
    145,          0.5,  0.428571433,  0.150000006
    146,  0.428571433,  0.428571433,  0.150000006
    147,  0.357142866,  0.428571433,  0.150000006
    148,  0.285714298,  0.428571433,  0.150000006
    149,  0.214285716,  0.428571433,  0.150000006
    150,  0.142857149,  0.428571433,  0.150000006
    151, 0.0714285746,  0.428571433,  0.150000006
    152,           0.,  0.428571433,  0.150000006
    153,          0.5,  0.428571433,  0.075000003
    154,  0.428571433,  0.428571433,  0.075000003
    155,  0.357142866,  0.428571433,  0.075000003
    156,  0.285714298,  0.428571433,  0.075000003
    157,  0.214285716,  0.428571433,  0.075000003
    158,  0.142857149,  0.428571433,  0.075000003
    159, 0.0714285746,  0.428571433,  0.075000003
    160,           0.,  0.428571433,  0.075000003
    161,          0.5,  0.428571433,           0.
    162,  0.428571433,  0.428571433,           0.
    163,  0.357142866,  0.428571433,           0.
    164,  0.285714298,  0.428571433,           0.
    165,  0.214285716,  0.428571433,           0.
    166,  0.142857149,  0.428571433,           0.
    167, 0.0714285746,  0.428571433,           0.
    168,           0.,  0.428571433,           0.
    169,          0.5,          0.5,  0.150000006
    170,  0.428571433,          0.5,  0.150000006
    171,  0.357142866,          0.5,  0.150000006
    172,  0.285714298,          0.5,  0.150000006
    173,  0.214285716,          0.5,  0.150000006
    174,  0.142857149,          0.5,  0.150000006
    175, 0.0714285746,          0.5,  0.150000006
    176,           0.,          0.5,  0.150000006
    177,          0.5,          0.5,  0.075000003
    178,  0.428571433,          0.5,  0.075000003
    179,  0.357142866,          0.5,  0.075000003
    180,  0.285714298,          0.5,  0.075000003
    181,  0.214285716,          0.5,  0.075000003
    182,  0.142857149,          0.5,  0.075000003
    183, 0.0714285746,          0.5,  0.075000003
    184,           0.,          0.5,  0.075000003
    185,          0.5,          0.5,           0.
    186,  0.428571433,          0.5,           0.
    187,  0.357142866,          0.5,           0.
    188,  0.285714298,          0.5,           0.
    189,  0.214285716,          0.5,           0.
    190,  0.142857149,          0.5,           0.
    191, 0.0714285746,          0.5,           0.
    192,           0.,          0.5,           0.
*Element, type=C3D8R
 1,  25,  26,  34,  33,   1,   2,  10,   9
 2,  26,  27,  35,  34,   2,   3,  11,  10
 3,  27,  28,  36,  35,   3,   4,  12,  11
 4,  28,  29,  37,  36,   4,   5,  13,  12
 5,  29,  30,  38,  37,   5,   6,  14,  13
 6,  30,  31,  39,  38,   6,   7,  15,  14
 7,  31,  32,  40,  39,   7,   8,  16,  15
 8,  33,  34,  42,  41,   9,  10,  18,  17
 9,  34,  35,  43,  42,  10,  11,  19,  18
10,  35,  36,  44,  43,  11,  12,  20,  19
11,  36,  37,  45,  44,  12,  13,  21,  20
12,  37,  38,  46,  45,  13,  14,  22,  21
13,  38,  39,  47,  46,  14,  15,  23,  22
14,  39,  40,  48,  47,  15,  16,  24,  23
15,  49,  50,  58,  57,  25,  26,  34,  33
16,  50,  51,  59,  58,  26,  27,  35,  34
17,  51,  52,  60,  59,  27,  28,  36,  35
18,  52,  53,  61,  60,  28,  29,  37,  36
19,  53,  54,  62,  61,  29,  30,  38,  37
20,  54,  55,  63,  62,  30,  31,  39,  38
21,  55,  56,  64,  63,  31,  32,  40,  39
22,  57,  58,  66,  65,  33,  34,  42,  41
23,  58,  59,  67,  66,  34,  35,  43,  42
24,  59,  60,  68,  67,  35,  36,  44,  43
25,  60,  61,  69,  68,  36,  37,  45,  44
26,  61,  62,  70,  69,  37,  38,  46,  45
27,  62,  63,  71,  70,  38,  39,  47,  46
28,  63,  64,  72,  71,  39,  40,  48,  47
29,  73,  74,  82,  81,  49,  50,  58,  57
30,  74,  75,  83,  82,  50,  51,  59,  58
31,  75,  76,  84,  83,  51,  52,  60,  59
32,  76,  77,  85,  84,  52,  53,  61,  60
33,  77,  78,  86,  85,  53,  54,  62,  61
34,  78,  79,  87,  86,  54,  55,  63,  62
35,  79,  80,  88,  87,  55,  56,  64,  63
36,  81,  82,  90,  89,  57,  58,  66,  65
37,  82,  83,  91,  90,  58,  59,  67,  66
38,  83,  84,  92,  91,  59,  60,  68,  67
39,  84,  85,  93,  92,  60,  61,  69,  68
40,  85,  86,  94,  93,  61,  62,  70,  69
41,  86,  87,  95,  94,  62,  63,  71,  70
42,  87,  88,  96,  95,  63,  64,  72,  71
43,  97,  98, 106, 105,  73,  74,  82,  81
44,  98,  99, 107, 106,  74,  75,  83,  82
45,  99, 100, 108, 107,  75,  76,  84,  83
46, 100, 101, 109, 108,  76,  77,  85,  84
47, 101, 102, 110, 109,  77,  78,  86,  85
48, 102, 103, 111, 110,  78,  79,  87,  86
49, 103, 104, 112, 111,  79,  80,  88,  87
50, 105, 106, 114, 113,  81,  82,  90,  89
51, 106, 107, 115, 114,  82,  83,  91,  90
52, 107, 108, 116, 115,  83,  84,  92,  91
53, 108, 109, 117, 116,  84,  85,  93,  92
54, 109, 110, 118, 117,  85,  86,  94,  93
55, 110, 111, 119, 118,  86,  87,  95,  94
56, 111, 112, 120, 119,  87,  88,  96,  95
57, 121, 122, 130, 129,  97,  98, 106, 105
58, 122, 123, 131, 130,  98,  99, 107, 106
59, 123, 124, 132, 131,  99, 100, 108, 107
60, 124, 125, 133, 132, 100, 101, 109, 108
61, 125, 126, 134, 133, 101, 102, 110, 109
62, 126, 127, 135, 134, 102, 103, 111, 110
63, 127, 128, 136, 135, 103, 104, 112, 111
64, 129, 130, 138, 137, 105, 106, 114, 113
65, 130, 131, 139, 138, 106, 107, 115, 114
66, 131, 132, 140, 139, 107, 108, 116, 115
67, 132, 133, 141, 140, 108, 109, 117, 116
68, 133, 134, 142, 141, 109, 110, 118, 117
69, 134, 135, 143, 142, 110, 111, 119, 118
70, 135, 136, 144, 143, 111, 112, 120, 119
71, 145, 146, 154, 153, 121, 122, 130, 129
72, 146, 147, 155, 154, 122, 123, 131, 130
73, 147, 148, 156, 155, 123, 124, 132, 131
74, 148, 149, 157, 156, 124, 125, 133, 132
75, 149, 150, 158, 157, 125, 126, 134, 133
76, 150, 151, 159, 158, 126, 127, 135, 134
77, 151, 152, 160, 159, 127, 128, 136, 135
78, 153, 154, 162, 161, 129, 130, 138, 137
79, 154, 155, 163, 162, 130, 131, 139, 138
80, 155, 156, 164, 163, 131, 132, 140, 139
81, 156, 157, 165, 164, 132, 133, 141, 140
82, 157, 158, 166, 165, 133, 134, 142, 141
83, 158, 159, 167, 166, 134, 135, 143, 142
84, 159, 160, 168, 167, 135, 136, 144, 143
85, 169, 170, 178, 177, 145, 146, 154, 153
86, 170, 171, 179, 178, 146, 147, 155, 154
87, 171, 172, 180, 179, 147, 148, 156, 155
88, 172, 173, 181, 180, 148, 149, 157, 156
89, 173, 174, 182, 181, 149, 150, 158, 157
90, 174, 175, 183, 182, 150, 151, 159, 158
91, 175, 176, 184, 183, 151, 152, 160, 159
92, 177, 178, 186, 185, 153, 154, 162, 161
93, 178, 179, 187, 186, 154, 155, 163, 162
94, 179, 180, 188, 187, 155, 156, 164, 163
95, 180, 181, 189, 188, 156, 157, 165, 164
96, 181, 182, 190, 189, 157, 158, 166, 165
97, 182, 183, 191, 190, 158, 159, 167, 166
98, 183, 184, 192, 191, 159, 160, 168, 167
*Nset, nset=_PickedSet2, internal, generate
   1,  192,    1
*Elset, elset=_PickedSet2, internal, generate
  1,  98,   1
*Elset, elset=_bot_S5, internal
  8,  9, 10, 11, 12, 13, 14, 22, 23, 24, 25, 26, 27, 28, 36, 37
 38, 39, 40, 41, 42, 50, 51, 52, 53, 54, 55, 56, 64, 65, 66, 67
 68, 69, 70, 78, 79, 80, 81, 82, 83, 84, 92, 93, 94, 95, 96, 97
 98,
*Surface, type=ELEMENT, name=bot
_bot_S5, S5
** Section: BrickSection
*Solid Section, elset=_PickedSet2, material="Concrete C30/37"
,
*End Part
**  
*Part, name=DikeRigid
*End Part
**  
*Part, name=HalfBlock
*Node
      1,        21.25,          25.,  0.150000006
      2,        21.25,   24.9285717,  0.150000006
      3,        21.25,   24.8571434,  0.150000006
      4,        21.25,   24.7857151,  0.150000006
      5,        21.25,   24.7142849,  0.150000006
      6,        21.25,   24.6428566,  0.150000006
      7,        21.25,   24.5714283,  0.150000006
      8,        21.25,         24.5,  0.150000006
      9,        21.25,          25.,  0.075000003
     10,        21.25,   24.9285717,  0.075000003
     11,        21.25,   24.8571434,  0.075000003
     12,        21.25,   24.7857151,  0.075000003
     13,        21.25,   24.7142849,  0.075000003
     14,        21.25,   24.6428566,  0.075000003
     15,        21.25,   24.5714283,  0.075000003
     16,        21.25,         24.5,  0.075000003
     17,        21.25,          25.,           0.
     18,        21.25,   24.9285717,           0.
     19,        21.25,   24.8571434,           0.
     20,        21.25,   24.7857151,           0.
     21,        21.25,   24.7142849,           0.
     22,        21.25,   24.6428566,           0.
     23,        21.25,   24.5714283,           0.
     24,        21.25,         24.5,           0.
     25,   21.1812496,          25.,  0.150000006
     26,   21.1812496,   24.9285717,  0.150000006
     27,   21.1812496,   24.8571434,  0.150000006
     28,   21.1812496,   24.7857151,  0.150000006
     29,   21.1812496,   24.7142849,  0.150000006
     30,   21.1812496,   24.6428566,  0.150000006
     31,   21.1812496,   24.5714283,  0.150000006
     32,   21.1812496,         24.5,  0.150000006
     33,   21.1812496,          25.,  0.075000003
     34,   21.1812496,   24.9285717,  0.075000003
     35,   21.1812496,   24.8571434,  0.075000003
     36,   21.1812496,   24.7857151,  0.075000003
     37,   21.1812496,   24.7142849,  0.075000003
     38,   21.1812496,   24.6428566,  0.075000003
     39,   21.1812496,   24.5714283,  0.075000003
     40,   21.1812496,         24.5,  0.075000003
     41,   21.1812496,          25.,           0.
     42,   21.1812496,   24.9285717,           0.
     43,   21.1812496,   24.8571434,           0.
     44,   21.1812496,   24.7857151,           0.
     45,   21.1812496,   24.7142849,           0.
     46,   21.1812496,   24.6428566,           0.
     47,   21.1812496,   24.5714283,           0.
     48,   21.1812496,         24.5,           0.
     49,   21.1124992,          25.,  0.150000006
     50,   21.1124992,   24.9285717,  0.150000006
     51,   21.1124992,   24.8571434,  0.150000006
     52,   21.1124992,   24.7857151,  0.150000006
     53,   21.1124992,   24.7142849,  0.150000006
     54,   21.1124992,   24.6428566,  0.150000006
     55,   21.1124992,   24.5714283,  0.150000006
     56,   21.1124992,         24.5,  0.150000006
     57,   21.1124992,          25.,  0.075000003
     58,   21.1124992,   24.9285717,  0.075000003
     59,   21.1124992,   24.8571434,  0.075000003
     60,   21.1124992,   24.7857151,  0.075000003
     61,   21.1124992,   24.7142849,  0.075000003
     62,   21.1124992,   24.6428566,  0.075000003
     63,   21.1124992,   24.5714283,  0.075000003
     64,   21.1124992,         24.5,  0.075000003
     65,   21.1124992,          25.,           0.
     66,   21.1124992,   24.9285717,           0.
     67,   21.1124992,   24.8571434,           0.
     68,   21.1124992,   24.7857151,           0.
     69,   21.1124992,   24.7142849,           0.
     70,   21.1124992,   24.6428566,           0.
     71,   21.1124992,   24.5714283,           0.
     72,   21.1124992,         24.5,           0.
     73,   21.0437508,          25.,  0.150000006
     74,   21.0437508,   24.9285717,  0.150000006
     75,   21.0437508,   24.8571434,  0.150000006
     76,   21.0437508,   24.7857151,  0.150000006
     77,   21.0437508,   24.7142849,  0.150000006
     78,   21.0437508,   24.6428566,  0.150000006
     79,   21.0437508,   24.5714283,  0.150000006
     80,   21.0437508,         24.5,  0.150000006
     81,   21.0437508,          25.,  0.075000003
     82,   21.0437508,   24.9285717,  0.075000003
     83,   21.0437508,   24.8571434,  0.075000003
     84,   21.0437508,   24.7857151,  0.075000003
     85,   21.0437508,   24.7142849,  0.075000003
     86,   21.0437508,   24.6428566,  0.075000003
     87,   21.0437508,   24.5714283,  0.075000003
     88,   21.0437508,         24.5,  0.075000003
     89,   21.0437508,          25.,           0.
     90,   21.0437508,   24.9285717,           0.
     91,   21.0437508,   24.8571434,           0.
     92,   21.0437508,   24.7857151,           0.
     93,   21.0437508,   24.7142849,           0.
     94,   21.0437508,   24.6428566,           0.
     95,   21.0437508,   24.5714283,           0.
     96,   21.0437508,         24.5,           0.
     97,   20.9750004,          25.,  0.150000006
     98,   20.9750004,   24.9285717,  0.150000006
     99,   20.9750004,   24.8571434,  0.150000006
    100,   20.9750004,   24.7857151,  0.150000006
    101,   20.9750004,   24.7142849,  0.150000006
    102,   20.9750004,   24.6428566,  0.150000006
    103,   20.9750004,   24.5714283,  0.150000006
    104,   20.9750004,         24.5,  0.150000006
    105,   20.9750004,          25.,  0.075000003
    106,   20.9750004,   24.9285717,  0.075000003
    107,   20.9750004,   24.8571434,  0.075000003
    108,   20.9750004,   24.7857151,  0.075000003
    109,   20.9750004,   24.7142849,  0.075000003
    110,   20.9750004,   24.6428566,  0.075000003
    111,   20.9750004,   24.5714283,  0.075000003
    112,   20.9750004,         24.5,  0.075000003
    113,   20.9750004,          25.,           0.
    114,   20.9750004,   24.9285717,           0.
    115,   20.9750004,   24.8571434,           0.
    116,   20.9750004,   24.7857151,           0.
    117,   20.9750004,   24.7142849,           0.
    118,   20.9750004,   24.6428566,           0.
    119,   20.9750004,   24.5714283,           0.
    120,   20.9750004,         24.5,           0.
*Element, type=C3D8R
 1,  25,  26,  34,  33,   1,   2,  10,   9
 2,  26,  27,  35,  34,   2,   3,  11,  10
 3,  27,  28,  36,  35,   3,   4,  12,  11
 4,  28,  29,  37,  36,   4,   5,  13,  12
 5,  29,  30,  38,  37,   5,   6,  14,  13
 6,  30,  31,  39,  38,   6,   7,  15,  14
 7,  31,  32,  40,  39,   7,   8,  16,  15
 8,  33,  34,  42,  41,   9,  10,  18,  17
 9,  34,  35,  43,  42,  10,  11,  19,  18
10,  35,  36,  44,  43,  11,  12,  20,  19
11,  36,  37,  45,  44,  12,  13,  21,  20
12,  37,  38,  46,  45,  13,  14,  22,  21
13,  38,  39,  47,  46,  14,  15,  23,  22
14,  39,  40,  48,  47,  15,  16,  24,  23
15,  49,  50,  58,  57,  25,  26,  34,  33
16,  50,  51,  59,  58,  26,  27,  35,  34
17,  51,  52,  60,  59,  27,  28,  36,  35
18,  52,  53,  61,  60,  28,  29,  37,  36
19,  53,  54,  62,  61,  29,  30,  38,  37
20,  54,  55,  63,  62,  30,  31,  39,  38
21,  55,  56,  64,  63,  31,  32,  40,  39
22,  57,  58,  66,  65,  33,  34,  42,  41
23,  58,  59,  67,  66,  34,  35,  43,  42
24,  59,  60,  68,  67,  35,  36,  44,  43
25,  60,  61,  69,  68,  36,  37,  45,  44
26,  61,  62,  70,  69,  37,  38,  46,  45
27,  62,  63,  71,  70,  38,  39,  47,  46
28,  63,  64,  72,  71,  39,  40,  48,  47
29,  73,  74,  82,  81,  49,  50,  58,  57
30,  74,  75,  83,  82,  50,  51,  59,  58
31,  75,  76,  84,  83,  51,  52,  60,  59
32,  76,  77,  85,  84,  52,  53,  61,  60
33,  77,  78,  86,  85,  53,  54,  62,  61
34,  78,  79,  87,  86,  54,  55,  63,  62
35,  79,  80,  88,  87,  55,  56,  64,  63
36,  81,  82,  90,  89,  57,  58,  66,  65
37,  82,  83,  91,  90,  58,  59,  67,  66
38,  83,  84,  92,  91,  59,  60,  68,  67
39,  84,  85,  93,  92,  60,  61,  69,  68
40,  85,  86,  94,  93,  61,  62,  70,  69
41,  86,  87,  95,  94,  62,  63,  71,  70
42,  87,  88,  96,  95,  63,  64,  72,  71
43,  97,  98, 106, 105,  73,  74,  82,  81
44,  98,  99, 107, 106,  74,  75,  83,  82
45,  99, 100, 108, 107,  75,  76,  84,  83
46, 100, 101, 109, 108,  76,  77,  85,  84
47, 101, 102, 110, 109,  77,  78,  86,  85
48, 102, 103, 111, 110,  78,  79,  87,  86
49, 103, 104, 112, 111,  79,  80,  88,  87
50, 105, 106, 114, 113,  81,  82,  90,  89
51, 106, 107, 115, 114,  82,  83,  91,  90
52, 107, 108, 116, 115,  83,  84,  92,  91
53, 108, 109, 117, 116,  84,  85,  93,  92
54, 109, 110, 118, 117,  85,  86,  94,  93
55, 110, 111, 119, 118,  86,  87,  95,  94
56, 111, 112, 120, 119,  87,  88,  96,  95
*Nset, nset=_PickedSet2, internal, generate
   1,  120,    1
*Elset, elset=_PickedSet2, internal, generate
  1,  56,   1
*Elset, elset=_bot_S5, internal
  8,  9, 10, 11, 12, 13, 14, 22, 23, 24, 25, 26, 27, 28, 36, 37
 38, 39, 40, 41, 42, 50, 51, 52, 53, 54, 55, 56
*Surface, type=ELEMENT, name=bot
_bot_S5, S5
** Section: BrickSection
*Solid Section, elset=_PickedSet2, material="Concrete C30/37"
,
*End Part
**  
*Part, name=Wall
*End Part
**  
**
** ASSEMBLY
**
*Assembly, name=Assembly
**  
*Instance, name=B-1-10, part=HalfBlock
-12.8256910813658, 13.0837826918802,      -25.975
-12.8256910813658, 13.0837826918802,      -25.975, -12.195687021233, 13.5378639039308, -25.3449959398672, 228.843812872893
*End Instance
**  
*Instance, name=B-1-9, part=Block
10.4170496808369, 5.3362024391297,       -4.175
10.4170496808369, 5.3362024391297,       -4.175, 9.44238715723876, 5.49436839884064, -4.33316595971094, 91.4702773561219
*End Instance
**  
*Instance, name=B-1-8, part=Block
10.4170496808369, 5.3362024391297,       -3.625
10.4170496808369, 5.3362024391297,       -3.625, 9.44238715723876, 5.49436839884064, -3.78316595971094, 91.4702773561219
*End Instance
**  
*Instance, name=B-1-7, part=Block
10.4170496808369, 5.3362024391297,       -3.075
10.4170496808369, 5.3362024391297,       -3.075, 9.44238715723876, 5.49436839884064, -3.23316595971095, 91.4702773561219
*End Instance
**  
*Instance, name=B-1-6, part=Block
10.4170496808369, 5.3362024391297,       -2.525
10.4170496808369, 5.3362024391297,       -2.525, 9.44238715723876, 5.49436839884064, -2.68316595971094, 91.4702773561219
*End Instance
**  
*Instance, name=B-1-5, part=Block
10.4170496808369, 5.3362024391297,       -1.975
10.4170496808369, 5.3362024391297,       -1.975, 9.44238715723876, 5.49436839884064, -2.13316595971094, 91.4702773561219
*End Instance
**  
*Instance, name=B-1-4, part=Block
10.4170496808369, 5.3362024391297,       -1.425
10.4170496808369, 5.3362024391297,       -1.425, 9.44238715723876, 5.49436839884064, -1.58316595971094, 91.4702773561219
*End Instance
**  
*Instance, name=B-1-3, part=Block
10.4170496808369, 5.3362024391297,       -0.875
10.4170496808369, 5.3362024391297,       -0.875, 9.44238715723876, 5.49436839884064, -1.03316595971095, 91.4702773561219
*End Instance
**  
*Instance, name=B-1-2, part=Block
10.4170496808369, 5.3362024391297, -0.324999999999999
10.4170496808369, 5.3362024391297, -0.324999999999999, 9.44238715723876, 5.49436839884064, -0.483165959710944, 91.4702773561219
*End Instance
**  
*Instance, name=B-1-1, part=HalfBlock
-12.8256910813658, 13.0837826918802,       -21.25
-12.8256910813658, 13.0837826918802,       -21.25, -12.195687021233, 13.5378639039308, -20.6199959398672, 228.843812872893
*End Instance
**  
*Instance, name=B-2-1, part=Block
10.8913913298702, 5.17808855614547, -0.0499999999999991
10.8913913298702, 5.17808855614547, -0.0499999999999991, 9.91672880627208, 5.33625451585641, -0.208165959710944, 91.4702773561219
*End Instance
**  
*Instance, name=B-2-2, part=Block
10.8913913298702, 5.17808855614547, -0.599999999999999
10.8913913298702, 5.17808855614547, -0.599999999999999, 9.91672880627208, 5.33625451585641, -0.758165959710944, 91.4702773561219
*End Instance
**  
*Instance, name=B-2-3, part=Block
10.8913913298702, 5.17808855614547,        -1.15
10.8913913298702, 5.17808855614547,        -1.15, 9.91672880627208, 5.33625451585641, -1.30816595971094, 91.4702773561219
*End Instance
**  
*Instance, name=B-2-4, part=Block
10.8913913298702, 5.17808855614547,         -1.7
10.8913913298702, 5.17808855614547,         -1.7, 9.91672880627208, 5.33625451585641, -1.85816595971094, 91.4702773561219
*End Instance
**  
*Instance, name=B-2-5, part=Block
10.8913913298702, 5.17808855614547,        -2.25
10.8913913298702, 5.17808855614547,        -2.25, 9.91672880627208, 5.33625451585641, -2.40816595971094, 91.4702773561219
*End Instance
**  
*Instance, name=B-2-6, part=Block
10.8913913298702, 5.17808855614547,         -2.8
10.8913913298702, 5.17808855614547,         -2.8, 9.91672880627208, 5.33625451585641, -2.95816595971094, 91.4702773561219
*End Instance
**  
*Instance, name=B-2-7, part=Block
10.8913913298702, 5.17808855614547,        -3.35
10.8913913298702, 5.17808855614547,        -3.35, 9.91672880627208, 5.33625451585641, -3.50816595971094, 91.4702773561219
*End Instance
**  
*Instance, name=B-2-8, part=Block
10.8913913298702, 5.17808855614547,         -3.9
10.8913913298702, 5.17808855614547,         -3.9, 9.91672880627208, 5.33625451585641, -4.05816595971094, 91.4702773561219
*End Instance
**  
*Instance, name=B-2-9, part=Block
10.8913913298702, 5.17808855614547,        -4.45
10.8913913298702, 5.17808855614547,        -4.45, 9.91672880627208, 5.33625451585641, -4.60816595971094, 91.4702773561219
*End Instance
**  
*Instance, name=B-3-10, part=HalfBlock
-11.8770077832991, 12.7675549259117,      -25.975
-11.8770077832991, 12.7675549259117,      -25.975, -11.2470037231663, 13.2216361379623, -25.3449959398672, 228.843812872893
*End Instance
**  
*Instance, name=B-5-10, part=HalfBlock
-10.9283244852325, 12.4513271599433,      -25.975
-10.9283244852325, 12.4513271599433,      -25.975, -10.2983204250997, 12.9054083719939, -25.3449959398672, 228.843812872893
*End Instance
**  
*Instance, name=B-7-10, part=HalfBlock
-9.97964118716583, 12.1350993939748,      -25.975
-9.97964118716583, 12.1350993939748,      -25.975, -9.34963712703303, 12.5891806060254, -25.3449959398672, 228.843812872893
*End Instance
**  
*Instance, name=B-9-10, part=HalfBlock
-9.03095788909919, 11.8188716280064,      -25.975
-9.03095788909919, 11.8188716280064,      -25.975, -8.40095382896639, 12.272952840057, -25.3449959398672, 228.843812872893
*End Instance
**  
*Instance, name=B-11-10, part=HalfBlock
-8.08227459103255, 11.5026438620379,      -25.975
-8.08227459103255, 11.5026438620379,      -25.975, -7.45227053089975, 11.9567250740885, -25.3449959398672, 228.843812872893
*End Instance
**  
*Instance, name=B-13-10, part=HalfBlock
-7.13359129296591, 11.1864160960695,      -25.975
-7.13359129296591, 11.1864160960695,      -25.975, -6.50358723283311, 11.6404973081201, -25.3449959398672, 228.843812872893
*End Instance
**  
*Instance, name=B-15-10, part=HalfBlock
-6.18490799489927, 10.870188330101,      -25.975
-6.18490799489927, 10.870188330101,      -25.975, -5.55490393476647, 11.3242695421516, -25.3449959398672, 228.843812872893
*End Instance
**  
*Instance, name=B-17-10, part=HalfBlock
-5.23622469683262, 10.5539605641325,      -25.975
-5.23622469683262, 10.5539605641325,      -25.975, -4.60622063669983, 11.0080417761831, -25.3449959398672, 228.843812872893
*End Instance
**  
*Instance, name=B-19-10, part=HalfBlock
-4.28754139876598, 10.2377327981641,      -25.975
-4.28754139876598, 10.2377327981641,      -25.975, -3.65753733863319, 10.6918140102147, -25.3449959398672, 228.843812872893
*End Instance
**  
*Instance, name=B-21-10, part=HalfBlock
-3.33885810069934, 9.92150503219563,      -25.975
-3.33885810069934, 9.92150503219563,      -25.975, -2.70885404056654, 10.3755862442462, -25.3449959398672, 228.843812872893
*End Instance
**  
*Instance, name=B-3-9, part=Block
11.3657329789036, 5.01997467316124,       -4.175
11.3657329789036, 5.01997467316124,       -4.175, 10.3910704553054, 5.17814063287219, -4.33316595971094, 91.4702773561219
*End Instance
**  
*Instance, name=B-5-9, part=Block
12.3144162769702, 4.70374690719278,       -4.175
12.3144162769702, 4.70374690719278,       -4.175, 11.339753753372, 4.86191286690373, -4.33316595971094, 91.4702773561219
*End Instance
**  
*Instance, name=B-7-9, part=Block
13.2630995750368, 4.38751914122433,       -4.175
13.2630995750368, 4.38751914122433,       -4.175, 12.2884370514387, 4.54568510093527, -4.33316595971094, 91.4702773561219
*End Instance
**  
*Instance, name=B-9-9, part=Block
14.2117828731035, 4.07129137525587,       -4.175
14.2117828731035, 4.07129137525587,       -4.175, 13.2371203495053, 4.22945733496682, -4.33316595971094, 91.4702773561219
*End Instance
**  
*Instance, name=B-11-9, part=Block
15.1604661711701, 3.75506360928742,       -4.175
15.1604661711701, 3.75506360928742,       -4.175, 14.185803647572, 3.91322956899836, -4.33316595971094, 91.4702773561219
*End Instance
**  
*Instance, name=B-13-9, part=Block
16.1091494692368, 3.43883584331896,       -4.175
16.1091494692368, 3.43883584331896,       -4.175, 15.1344869456386, 3.5970018030299, -4.33316595971094, 91.4702773561219
*End Instance
**  
*Instance, name=B-15-9, part=Block
17.0578327673034, 3.1226080773505,       -4.175
17.0578327673034, 3.1226080773505,       -4.175, 16.0831702437052, 3.28077403706145, -4.33316595971094, 91.4702773561219
*End Instance
**  
*Instance, name=B-17-9, part=Block
18.00651606537, 2.80638031138205,       -4.175
18.00651606537, 2.80638031138205,       -4.175, 17.0318535417719, 2.96454627109299, -4.33316595971094, 91.4702773561219
*End Instance
**  
*Instance, name=B-19-9, part=Block
18.9551993634367, 2.49015254541359,       -4.175
18.9551993634367, 2.49015254541359,       -4.175, 17.9805368398385, 2.64831850512454, -4.33316595971094, 91.4702773561219
*End Instance
**  
*Instance, name=B-21-9, part=Block
19.9038826615033, 2.17392477944513,       -4.175
19.9038826615033, 2.17392477944513,       -4.175, 18.9292201379052, 2.33209073915608, -4.33316595971094, 91.4702773561219
*End Instance
**  
*Instance, name=B-4-8, part=Block
11.8400746279369, 4.86186079017701,         -3.9
11.8400746279369, 4.86186079017701,         -3.9, 10.8654121043387, 5.02002674988796, -4.05816595971094, 91.4702773561219
*End Instance
**  
*Instance, name=B-6-8, part=Block
12.7887579260035, 4.54563302420856,         -3.9
12.7887579260035, 4.54563302420856,         -3.9, 11.8140954024054, 4.7037989839195, -4.05816595971094, 91.4702773561219
*End Instance
**  
*Instance, name=B-8-8, part=Block
13.7374412240702, 4.2294052582401,         -3.9
13.7374412240702, 4.2294052582401,         -3.9, 12.762778700472, 4.38757121795105, -4.05816595971094, 91.4702773561219
*End Instance
**  
*Instance, name=B-10-8, part=Block
14.6861245221368, 3.91317749227164,         -3.9
14.6861245221368, 3.91317749227164,         -3.9, 13.7114619985386, 4.07134345198259, -4.05816595971094, 91.4702773561219
*End Instance
**  
*Instance, name=B-12-8, part=Block
15.6348078202034, 3.59694972630319,         -3.9
15.6348078202034, 3.59694972630319,         -3.9, 14.6601452966053, 3.75511568601413, -4.05816595971094, 91.4702773561219
*End Instance
**  
*Instance, name=B-14-8, part=Block
16.5834911182701, 3.28072196033473,         -3.9
16.5834911182701, 3.28072196033473,         -3.9, 15.6088285946719, 3.43888792004568, -4.05816595971094, 91.4702773561219
*End Instance
**  
*Instance, name=B-16-8, part=Block
17.5321744163367, 2.96449419436628,         -3.9
17.5321744163367, 2.96449419436628,         -3.9, 16.5575118927386, 3.12266015407722, -4.05816595971094, 91.4702773561219
*End Instance
**  
*Instance, name=B-18-8, part=Block
18.4808577144034, 2.64826642839782,         -3.9
18.4808577144034, 2.64826642839782,         -3.9, 17.5061951908052, 2.80643238810876, -4.05816595971094, 91.4702773561219
*End Instance
**  
*Instance, name=B-20-8, part=Block
19.42954101247, 2.33203866242936,         -3.9
19.42954101247, 2.33203866242936,         -3.9, 18.4548784888718, 2.49020462214031, -4.05816595971094, 91.4702773561219
*End Instance
**  
*Instance, name=B-22-8, part=Block
20.3782243105366, 2.01581089646091,         -3.9
20.3782243105366, 2.01581089646091,         -3.9, 19.4035617869385, 2.17397685617185, -4.05816595971094, 91.4702773561219
*End Instance
**  
*Instance, name=B-3-8, part=Block
11.3657329789036, 5.01997467316124,       -3.625
11.3657329789036, 5.01997467316124,       -3.625, 10.3910704553054, 5.17814063287219, -3.78316595971094, 91.4702773561219
*End Instance
**  
*Instance, name=B-5-8, part=Block
12.3144162769702, 4.70374690719278,       -3.625
12.3144162769702, 4.70374690719278,       -3.625, 11.339753753372, 4.86191286690373, -3.78316595971094, 91.4702773561219
*End Instance
**  
*Instance, name=B-7-8, part=Block
13.2630995750368, 4.38751914122433,       -3.625
13.2630995750368, 4.38751914122433,       -3.625, 12.2884370514387, 4.54568510093527, -3.78316595971094, 91.4702773561219
*End Instance
**  
*Instance, name=B-9-8, part=Block
14.2117828731035, 4.07129137525587,       -3.625
14.2117828731035, 4.07129137525587,       -3.625, 13.2371203495053, 4.22945733496682, -3.78316595971094, 91.4702773561219
*End Instance
**  
*Instance, name=B-11-8, part=Block
15.1604661711701, 3.75506360928742,       -3.625
15.1604661711701, 3.75506360928742,       -3.625, 14.185803647572, 3.91322956899836, -3.78316595971094, 91.4702773561219
*End Instance
**  
*Instance, name=B-13-8, part=Block
16.1091494692368, 3.43883584331896,       -3.625
16.1091494692368, 3.43883584331896,       -3.625, 15.1344869456386, 3.5970018030299, -3.78316595971094, 91.4702773561219
*End Instance
**  
*Instance, name=B-15-8, part=Block
17.0578327673034, 3.1226080773505,       -3.625
17.0578327673034, 3.1226080773505,       -3.625, 16.0831702437052, 3.28077403706145, -3.78316595971094, 91.4702773561219
*End Instance
**  
*Instance, name=B-17-8, part=Block
18.00651606537, 2.80638031138205,       -3.625
18.00651606537, 2.80638031138205,       -3.625, 17.0318535417719, 2.96454627109299, -3.78316595971094, 91.4702773561219
*End Instance
**  
*Instance, name=B-19-8, part=Block
18.9551993634367, 2.49015254541359,       -3.625
18.9551993634367, 2.49015254541359,       -3.625, 17.9805368398385, 2.64831850512454, -3.78316595971094, 91.4702773561219
*End Instance
**  
*Instance, name=B-21-8, part=Block
19.9038826615033, 2.17392477944513,       -3.625
19.9038826615033, 2.17392477944513,       -3.625, 18.9292201379052, 2.33209073915608, -3.78316595971094, 91.4702773561219
*End Instance
**  
*Instance, name=B-4-6, part=Block
11.8400746279369, 4.86186079017701,         -2.8
11.8400746279369, 4.86186079017701,         -2.8, 10.8654121043387, 5.02002674988796, -2.95816595971094, 91.4702773561219
*End Instance
**  
*Instance, name=B-6-6, part=Block
12.7887579260035, 4.54563302420856,         -2.8
12.7887579260035, 4.54563302420856,         -2.8, 11.8140954024054, 4.7037989839195, -2.95816595971094, 91.4702773561219
*End Instance
**  
*Instance, name=B-8-6, part=Block
13.7374412240702, 4.2294052582401,         -2.8
13.7374412240702, 4.2294052582401,         -2.8, 12.762778700472, 4.38757121795105, -2.95816595971094, 91.4702773561219
*End Instance
**  
*Instance, name=B-10-6, part=Block
14.6861245221368, 3.91317749227164,         -2.8
14.6861245221368, 3.91317749227164,         -2.8, 13.7114619985386, 4.07134345198259, -2.95816595971094, 91.4702773561219
*End Instance
**  
*Instance, name=B-12-6, part=Block
15.6348078202034, 3.59694972630319,         -2.8
15.6348078202034, 3.59694972630319,         -2.8, 14.6601452966053, 3.75511568601413, -2.95816595971094, 91.4702773561219
*End Instance
**  
*Instance, name=B-14-6, part=Block
16.5834911182701, 3.28072196033473,         -2.8
16.5834911182701, 3.28072196033473,         -2.8, 15.6088285946719, 3.43888792004568, -2.95816595971094, 91.4702773561219
*End Instance
**  
*Instance, name=B-16-6, part=Block
17.5321744163367, 2.96449419436628,         -2.8
17.5321744163367, 2.96449419436628,         -2.8, 16.5575118927386, 3.12266015407722, -2.95816595971094, 91.4702773561219
*End Instance
**  
*Instance, name=B-18-6, part=Block
18.4808577144034, 2.64826642839782,         -2.8
18.4808577144034, 2.64826642839782,         -2.8, 17.5061951908052, 2.80643238810876, -2.95816595971094, 91.4702773561219
*End Instance
**  
*Instance, name=B-20-6, part=Block
19.42954101247, 2.33203866242936,         -2.8
19.42954101247, 2.33203866242936,         -2.8, 18.4548784888718, 2.49020462214031, -2.95816595971094, 91.4702773561219
*End Instance
**  
*Instance, name=B-22-6, part=Block
20.3782243105366, 2.01581089646091,         -2.8
20.3782243105366, 2.01581089646091,         -2.8, 19.4035617869385, 2.17397685617185, -2.95816595971094, 91.4702773561219
*End Instance
**  
*Instance, name=B-3-6, part=Block
11.3657329789036, 5.01997467316124,       -2.525
11.3657329789036, 5.01997467316124,       -2.525, 10.3910704553054, 5.17814063287219, -2.68316595971094, 91.4702773561219
*End Instance
**  
*Instance, name=B-5-6, part=Block
12.3144162769702, 4.70374690719278,       -2.525
12.3144162769702, 4.70374690719278,       -2.525, 11.339753753372, 4.86191286690373, -2.68316595971094, 91.4702773561219
*End Instance
**  
*Instance, name=B-7-6, part=Block
13.2630995750368, 4.38751914122433,       -2.525
13.2630995750368, 4.38751914122433,       -2.525, 12.2884370514387, 4.54568510093527, -2.68316595971094, 91.4702773561219
*End Instance
**  
*Instance, name=B-9-6, part=Block
14.2117828731035, 4.07129137525587,       -2.525
14.2117828731035, 4.07129137525587,       -2.525, 13.2371203495053, 4.22945733496682, -2.68316595971094, 91.4702773561219
*End Instance
**  
*Instance, name=B-11-6, part=Block
15.1604661711701, 3.75506360928742,       -2.525
15.1604661711701, 3.75506360928742,       -2.525, 14.185803647572, 3.91322956899836, -2.68316595971094, 91.4702773561219
*End Instance
**  
*Instance, name=B-13-6, part=Block
16.1091494692368, 3.43883584331896,       -2.525
16.1091494692368, 3.43883584331896,       -2.525, 15.1344869456386, 3.5970018030299, -2.68316595971094, 91.4702773561219
*End Instance
**  
*Instance, name=B-15-6, part=Block
17.0578327673034, 3.1226080773505,       -2.525
17.0578327673034, 3.1226080773505,       -2.525, 16.0831702437052, 3.28077403706145, -2.68316595971094, 91.4702773561219
*End Instance
**  
*Instance, name=B-17-6, part=Block
18.00651606537, 2.80638031138205,       -2.525
18.00651606537, 2.80638031138205,       -2.525, 17.0318535417719, 2.96454627109299, -2.68316595971094, 91.4702773561219
*End Instance
**  
*Instance, name=B-19-6, part=Block
18.9551993634367, 2.49015254541359,       -2.525
18.9551993634367, 2.49015254541359,       -2.525, 17.9805368398385, 2.64831850512454, -2.68316595971094, 91.4702773561219
*End Instance
**  
*Instance, name=B-21-6, part=Block
19.9038826615033, 2.17392477944513,       -2.525
19.9038826615033, 2.17392477944513,       -2.525, 18.9292201379052, 2.33209073915608, -2.68316595971094, 91.4702773561219
*End Instance
**  
*Instance, name=B-4-4, part=Block
11.8400746279369, 4.86186079017701,         -1.7
11.8400746279369, 4.86186079017701,         -1.7, 10.8654121043387, 5.02002674988796, -1.85816595971094, 91.4702773561219
*End Instance
**  
*Instance, name=B-6-4, part=Block
12.7887579260035, 4.54563302420856,         -1.7
12.7887579260035, 4.54563302420856,         -1.7, 11.8140954024054, 4.7037989839195, -1.85816595971094, 91.4702773561219
*End Instance
**  
*Instance, name=B-8-4, part=Block
13.7374412240702, 4.2294052582401,         -1.7
13.7374412240702, 4.2294052582401,         -1.7, 12.762778700472, 4.38757121795105, -1.85816595971094, 91.4702773561219
*End Instance
**  
*Instance, name=B-10-4, part=Block
14.6861245221368, 3.91317749227164,         -1.7
14.6861245221368, 3.91317749227164,         -1.7, 13.7114619985386, 4.07134345198259, -1.85816595971094, 91.4702773561219
*End Instance
**  
*Instance, name=B-12-4, part=Block
15.6348078202034, 3.59694972630319,         -1.7
15.6348078202034, 3.59694972630319,         -1.7, 14.6601452966053, 3.75511568601413, -1.85816595971094, 91.4702773561219
*End Instance
**  
*Instance, name=B-14-4, part=Block
16.5834911182701, 3.28072196033473,         -1.7
16.5834911182701, 3.28072196033473,         -1.7, 15.6088285946719, 3.43888792004568, -1.85816595971094, 91.4702773561219
*End Instance
**  
*Instance, name=B-16-4, part=Block
17.5321744163367, 2.96449419436628,         -1.7
17.5321744163367, 2.96449419436628,         -1.7, 16.5575118927386, 3.12266015407722, -1.85816595971094, 91.4702773561219
*End Instance
**  
*Instance, name=B-18-4, part=Block
18.4808577144034, 2.64826642839782,         -1.7
18.4808577144034, 2.64826642839782,         -1.7, 17.5061951908052, 2.80643238810876, -1.85816595971094, 91.4702773561219
*End Instance
**  
*Instance, name=B-20-4, part=Block
19.42954101247, 2.33203866242936,         -1.7
19.42954101247, 2.33203866242936,         -1.7, 18.4548784888718, 2.49020462214031, -1.85816595971094, 91.4702773561219
*End Instance
**  
*Instance, name=B-22-4, part=Block
20.3782243105366, 2.01581089646091,         -1.7
20.3782243105366, 2.01581089646091,         -1.7, 19.4035617869385, 2.17397685617185, -1.85816595971094, 91.4702773561219
*End Instance
**  
*Instance, name=B-3-4, part=Block
11.3657329789036, 5.01997467316124,       -1.425
11.3657329789036, 5.01997467316124,       -1.425, 10.3910704553054, 5.17814063287219, -1.58316595971094, 91.4702773561219
*End Instance
**  
*Instance, name=B-5-4, part=Block
12.3144162769702, 4.70374690719278,       -1.425
12.3144162769702, 4.70374690719278,       -1.425, 11.339753753372, 4.86191286690373, -1.58316595971094, 91.4702773561219
*End Instance
**  
*Instance, name=B-7-4, part=Block
13.2630995750368, 4.38751914122433,       -1.425
13.2630995750368, 4.38751914122433,       -1.425, 12.2884370514387, 4.54568510093527, -1.58316595971094, 91.4702773561219
*End Instance
**  
*Instance, name=B-9-4, part=Block
14.2117828731035, 4.07129137525587,       -1.425
14.2117828731035, 4.07129137525587,       -1.425, 13.2371203495053, 4.22945733496682, -1.58316595971094, 91.4702773561219
*End Instance
**  
*Instance, name=B-11-4, part=Block
15.1604661711701, 3.75506360928742,       -1.425
15.1604661711701, 3.75506360928742,       -1.425, 14.185803647572, 3.91322956899836, -1.58316595971094, 91.4702773561219
*End Instance
**  
*Instance, name=B-13-4, part=Block
16.1091494692368, 3.43883584331896,       -1.425
16.1091494692368, 3.43883584331896,       -1.425, 15.1344869456386, 3.5970018030299, -1.58316595971094, 91.4702773561219
*End Instance
**  
*Instance, name=B-15-4, part=Block
17.0578327673034, 3.1226080773505,       -1.425
17.0578327673034, 3.1226080773505,       -1.425, 16.0831702437052, 3.28077403706145, -1.58316595971094, 91.4702773561219
*End Instance
**  
*Instance, name=B-17-4, part=Block
18.00651606537, 2.80638031138205,       -1.425
18.00651606537, 2.80638031138205,       -1.425, 17.0318535417719, 2.96454627109299, -1.58316595971094, 91.4702773561219
*End Instance
**  
*Instance, name=B-19-4, part=Block
18.9551993634367, 2.49015254541359,       -1.425
18.9551993634367, 2.49015254541359,       -1.425, 17.9805368398385, 2.64831850512454, -1.58316595971094, 91.4702773561219
*End Instance
**  
*Instance, name=B-21-4, part=Block
19.9038826615033, 2.17392477944513,       -1.425
19.9038826615033, 2.17392477944513,       -1.425, 18.9292201379052, 2.33209073915608, -1.58316595971094, 91.4702773561219
*End Instance
**  
*Instance, name=B-4-2, part=Block
11.8400746279369, 4.86186079017701, -0.599999999999999
11.8400746279369, 4.86186079017701, -0.599999999999999, 10.8654121043387, 5.02002674988796, -0.758165959710944, 91.4702773561219
*End Instance
**  
*Instance, name=B-6-2, part=Block
12.7887579260035, 4.54563302420856, -0.599999999999999
12.7887579260035, 4.54563302420856, -0.599999999999999, 11.8140954024054, 4.7037989839195, -0.758165959710944, 91.4702773561219
*End Instance
**  
*Instance, name=B-8-2, part=Block
13.7374412240702, 4.2294052582401, -0.599999999999999
13.7374412240702, 4.2294052582401, -0.599999999999999, 12.762778700472, 4.38757121795105, -0.758165959710944, 91.4702773561219
*End Instance
**  
*Instance, name=B-10-2, part=Block
14.6861245221368, 3.91317749227164, -0.599999999999999
14.6861245221368, 3.91317749227164, -0.599999999999999, 13.7114619985386, 4.07134345198259, -0.758165959710944, 91.4702773561219
*End Instance
**  
*Instance, name=B-12-2, part=Block
15.6348078202034, 3.59694972630319, -0.599999999999999
15.6348078202034, 3.59694972630319, -0.599999999999999, 14.6601452966053, 3.75511568601413, -0.758165959710944, 91.4702773561219
*End Instance
**  
*Instance, name=B-14-2, part=Block
16.5834911182701, 3.28072196033473, -0.599999999999999
16.5834911182701, 3.28072196033473, -0.599999999999999, 15.6088285946719, 3.43888792004568, -0.758165959710944, 91.4702773561219
*End Instance
**  
*Instance, name=B-16-2, part=Block
17.5321744163367, 2.96449419436628, -0.599999999999999
17.5321744163367, 2.96449419436628, -0.599999999999999, 16.5575118927386, 3.12266015407722, -0.758165959710944, 91.4702773561219
*End Instance
**  
*Instance, name=B-18-2, part=Block
18.4808577144034, 2.64826642839782, -0.599999999999999
18.4808577144034, 2.64826642839782, -0.599999999999999, 17.5061951908052, 2.80643238810876, -0.758165959710944, 91.4702773561219
*End Instance
**  
*Instance, name=B-20-2, part=Block
19.42954101247, 2.33203866242936, -0.599999999999999
19.42954101247, 2.33203866242936, -0.599999999999999, 18.4548784888718, 2.49020462214031, -0.758165959710944, 91.4702773561219
*End Instance
**  
*Instance, name=B-22-2, part=Block
20.3782243105366, 2.01581089646091, -0.599999999999999
20.3782243105366, 2.01581089646091, -0.599999999999999, 19.4035617869385, 2.17397685617185, -0.758165959710944, 91.4702773561219
*End Instance
**  
*Instance, name=B-3-2, part=Block
11.3657329789036, 5.01997467316124, -0.324999999999999
11.3657329789036, 5.01997467316124, -0.324999999999999, 10.3910704553054, 5.17814063287219, -0.483165959710944, 91.4702773561219
*End Instance
**  
*Instance, name=B-5-2, part=Block
12.3144162769702, 4.70374690719278, -0.324999999999999
12.3144162769702, 4.70374690719278, -0.324999999999999, 11.339753753372, 4.86191286690373, -0.483165959710944, 91.4702773561219
*End Instance
**  
*Instance, name=B-7-2, part=Block
13.2630995750368, 4.38751914122433, -0.324999999999999
13.2630995750368, 4.38751914122433, -0.324999999999999, 12.2884370514387, 4.54568510093527, -0.483165959710944, 91.4702773561219
*End Instance
**  
*Instance, name=B-9-2, part=Block
14.2117828731035, 4.07129137525587, -0.324999999999999
14.2117828731035, 4.07129137525587, -0.324999999999999, 13.2371203495053, 4.22945733496682, -0.483165959710944, 91.4702773561219
*End Instance
**  
*Instance, name=B-11-2, part=Block
15.1604661711701, 3.75506360928742, -0.324999999999999
15.1604661711701, 3.75506360928742, -0.324999999999999, 14.185803647572, 3.91322956899836, -0.483165959710944, 91.4702773561219
*End Instance
**  
*Instance, name=B-13-2, part=Block
16.1091494692368, 3.43883584331896, -0.324999999999999
16.1091494692368, 3.43883584331896, -0.324999999999999, 15.1344869456386, 3.5970018030299, -0.483165959710944, 91.4702773561219
*End Instance
**  
*Instance, name=B-15-2, part=Block
17.0578327673034, 3.1226080773505, -0.324999999999999
17.0578327673034, 3.1226080773505, -0.324999999999999, 16.0831702437052, 3.28077403706145, -0.483165959710944, 91.4702773561219
*End Instance
**  
*Instance, name=B-17-2, part=Block
18.00651606537, 2.80638031138205, -0.324999999999999
18.00651606537, 2.80638031138205, -0.324999999999999, 17.0318535417719, 2.96454627109299, -0.483165959710944, 91.4702773561219
*End Instance
**  
*Instance, name=B-19-2, part=Block
18.9551993634367, 2.49015254541359, -0.324999999999999
18.9551993634367, 2.49015254541359, -0.324999999999999, 17.9805368398385, 2.64831850512454, -0.483165959710944, 91.4702773561219
*End Instance
**  
*Instance, name=B-21-2, part=Block
19.9038826615033, 2.17392477944513, -0.324999999999999
19.9038826615033, 2.17392477944513, -0.324999999999999, 18.9292201379052, 2.33209073915608, -0.483165959710944, 91.4702773561219
*End Instance
**  
*Instance, name=B-3-1, part=HalfBlock
-11.8770077832991, 12.7675549259117,       -21.25
-11.8770077832991, 12.7675549259117,       -21.25, -11.2470037231663, 13.2216361379623, -20.6199959398672, 228.843812872893
*End Instance
**  
*Instance, name=B-5-1, part=HalfBlock
-10.9283244852325, 12.4513271599433,       -21.25
-10.9283244852325, 12.4513271599433,       -21.25, -10.2983204250997, 12.9054083719939, -20.6199959398672, 228.843812872893
*End Instance
**  
*Instance, name=B-7-1, part=HalfBlock
-9.97964118716583, 12.1350993939748,       -21.25
-9.97964118716583, 12.1350993939748,       -21.25, -9.34963712703303, 12.5891806060254, -20.6199959398672, 228.843812872893
*End Instance
**  
*Instance, name=B-9-1, part=HalfBlock
-9.03095788909919, 11.8188716280064,       -21.25
-9.03095788909919, 11.8188716280064,       -21.25, -8.40095382896639, 12.272952840057, -20.6199959398672, 228.843812872893
*End Instance
**  
*Instance, name=B-11-1, part=HalfBlock
-8.08227459103255, 11.5026438620379,       -21.25
-8.08227459103255, 11.5026438620379,       -21.25, -7.45227053089975, 11.9567250740885, -20.6199959398672, 228.843812872893
*End Instance
**  
*Instance, name=B-13-1, part=HalfBlock
-7.13359129296591, 11.1864160960695,       -21.25
-7.13359129296591, 11.1864160960695,       -21.25, -6.50358723283311, 11.6404973081201, -20.6199959398672, 228.843812872893
*End Instance
**  
*Instance, name=B-15-1, part=HalfBlock
-6.18490799489927, 10.870188330101,       -21.25
-6.18490799489927, 10.870188330101,       -21.25, -5.55490393476647, 11.3242695421516, -20.6199959398672, 228.843812872893
*End Instance
**  
*Instance, name=B-17-1, part=HalfBlock
-5.23622469683262, 10.5539605641325,       -21.25
-5.23622469683262, 10.5539605641325,       -21.25, -4.60622063669983, 11.0080417761831, -20.6199959398672, 228.843812872893
*End Instance
**  
*Instance, name=B-19-1, part=HalfBlock
-4.28754139876598, 10.2377327981641,       -21.25
-4.28754139876598, 10.2377327981641,       -21.25, -3.65753733863319, 10.6918140102147, -20.6199959398672, 228.843812872893
*End Instance
**  
*Instance, name=B-21-1, part=HalfBlock
-3.33885810069934, 9.92150503219563,       -21.25
-3.33885810069934, 9.92150503219563,       -21.25, -2.70885404056654, 10.3755862442462, -20.6199959398672, 228.843812872893
*End Instance
**  
*Instance, name=B-4-9, part=Block
11.8400746279369, 4.86186079017701,        -4.45
11.8400746279369, 4.86186079017701,        -4.45, 10.8654121043387, 5.02002674988796, -4.60816595971094, 91.4702773561219
*End Instance
**  
*Instance, name=B-6-9, part=Block
12.7887579260035, 4.54563302420856,        -4.45
12.7887579260035, 4.54563302420856,        -4.45, 11.8140954024054, 4.7037989839195, -4.60816595971094, 91.4702773561219
*End Instance
**  
*Instance, name=B-8-9, part=Block
13.7374412240702, 4.2294052582401,        -4.45
13.7374412240702, 4.2294052582401,        -4.45, 12.762778700472, 4.38757121795105, -4.60816595971094, 91.4702773561219
*End Instance
**  
*Instance, name=B-10-9, part=Block
14.6861245221368, 3.91317749227164,        -4.45
14.6861245221368, 3.91317749227164,        -4.45, 13.7114619985386, 4.07134345198259, -4.60816595971094, 91.4702773561219
*End Instance
**  
*Instance, name=B-12-9, part=Block
15.6348078202034, 3.59694972630319,        -4.45
15.6348078202034, 3.59694972630319,        -4.45, 14.6601452966053, 3.75511568601413, -4.60816595971094, 91.4702773561219
*End Instance
**  
*Instance, name=B-14-9, part=Block
16.5834911182701, 3.28072196033473,        -4.45
16.5834911182701, 3.28072196033473,        -4.45, 15.6088285946719, 3.43888792004568, -4.60816595971094, 91.4702773561219
*End Instance
**  
*Instance, name=B-16-9, part=Block
17.5321744163367, 2.96449419436628,        -4.45
17.5321744163367, 2.96449419436628,        -4.45, 16.5575118927386, 3.12266015407722, -4.60816595971094, 91.4702773561219
*End Instance
**  
*Instance, name=B-18-9, part=Block
18.4808577144034, 2.64826642839782,        -4.45
18.4808577144034, 2.64826642839782,        -4.45, 17.5061951908052, 2.80643238810876, -4.60816595971094, 91.4702773561219
*End Instance
**  
*Instance, name=B-20-9, part=Block
19.42954101247, 2.33203866242936,        -4.45
19.42954101247, 2.33203866242936,        -4.45, 18.4548784888718, 2.49020462214031, -4.60816595971094, 91.4702773561219
*End Instance
**  
*Instance, name=B-22-9, part=Block
20.3782243105366, 2.01581089646091,        -4.45
20.3782243105366, 2.01581089646091,        -4.45, 19.4035617869385, 2.17397685617185, -4.60816595971094, 91.4702773561219
*End Instance
**  
*Instance, name=B-4-7, part=Block
11.8400746279369, 4.86186079017701,        -3.35
11.8400746279369, 4.86186079017701,        -3.35, 10.8654121043387, 5.02002674988796, -3.50816595971094, 91.4702773561219
*End Instance
**  
*Instance, name=B-6-7, part=Block
12.7887579260035, 4.54563302420856,        -3.35
12.7887579260035, 4.54563302420856,        -3.35, 11.8140954024054, 4.7037989839195, -3.50816595971094, 91.4702773561219
*End Instance
**  
*Instance, name=B-8-7, part=Block
13.7374412240702, 4.2294052582401,        -3.35
13.7374412240702, 4.2294052582401,        -3.35, 12.762778700472, 4.38757121795105, -3.50816595971094, 91.4702773561219
*End Instance
**  
*Instance, name=B-10-7, part=Block
14.6861245221368, 3.91317749227164,        -3.35
14.6861245221368, 3.91317749227164,        -3.35, 13.7114619985386, 4.07134345198259, -3.50816595971094, 91.4702773561219
*End Instance
**  
*Instance, name=B-12-7, part=Block
15.6348078202034, 3.59694972630319,        -3.35
15.6348078202034, 3.59694972630319,        -3.35, 14.6601452966053, 3.75511568601413, -3.50816595971094, 91.4702773561219
*End Instance
**  
*Instance, name=B-14-7, part=Block
16.5834911182701, 3.28072196033473,        -3.35
16.5834911182701, 3.28072196033473,        -3.35, 15.6088285946719, 3.43888792004568, -3.50816595971094, 91.4702773561219
*End Instance
**  
*Instance, name=B-16-7, part=Block
17.5321744163367, 2.96449419436628,        -3.35
17.5321744163367, 2.96449419436628,        -3.35, 16.5575118927386, 3.12266015407722, -3.50816595971094, 91.4702773561219
*End Instance
**  
*Instance, name=B-18-7, part=Block
18.4808577144034, 2.64826642839782,        -3.35
18.4808577144034, 2.64826642839782,        -3.35, 17.5061951908052, 2.80643238810876, -3.50816595971094, 91.4702773561219
*End Instance
**  
*Instance, name=B-20-7, part=Block
19.42954101247, 2.33203866242936,        -3.35
19.42954101247, 2.33203866242936,        -3.35, 18.4548784888718, 2.49020462214031, -3.50816595971094, 91.4702773561219
*End Instance
**  
*Instance, name=B-22-7, part=Block
20.3782243105366, 2.01581089646091,        -3.35
20.3782243105366, 2.01581089646091,        -3.35, 19.4035617869385, 2.17397685617185, -3.50816595971094, 91.4702773561219
*End Instance
**  
*Instance, name=B-3-7, part=Block
11.3657329789036, 5.01997467316124,       -3.075
11.3657329789036, 5.01997467316124,       -3.075, 10.3910704553054, 5.17814063287219, -3.23316595971095, 91.4702773561219
*End Instance
**  
*Instance, name=B-5-7, part=Block
12.3144162769702, 4.70374690719278,       -3.075
12.3144162769702, 4.70374690719278,       -3.075, 11.339753753372, 4.86191286690373, -3.23316595971095, 91.4702773561219
*End Instance
**  
*Instance, name=B-7-7, part=Block
13.2630995750368, 4.38751914122433,       -3.075
13.2630995750368, 4.38751914122433,       -3.075, 12.2884370514387, 4.54568510093527, -3.23316595971095, 91.4702773561219
*End Instance
**  
*Instance, name=B-9-7, part=Block
14.2117828731035, 4.07129137525587,       -3.075
14.2117828731035, 4.07129137525587,       -3.075, 13.2371203495053, 4.22945733496682, -3.23316595971095, 91.4702773561219
*End Instance
**  
*Instance, name=B-11-7, part=Block
15.1604661711701, 3.75506360928742,       -3.075
15.1604661711701, 3.75506360928742,       -3.075, 14.185803647572, 3.91322956899836, -3.23316595971095, 91.4702773561219
*End Instance
**  
*Instance, name=B-13-7, part=Block
16.1091494692368, 3.43883584331896,       -3.075
16.1091494692368, 3.43883584331896,       -3.075, 15.1344869456386, 3.5970018030299, -3.23316595971095, 91.4702773561219
*End Instance
**  
*Instance, name=B-15-7, part=Block
17.0578327673034, 3.1226080773505,       -3.075
17.0578327673034, 3.1226080773505,       -3.075, 16.0831702437052, 3.28077403706145, -3.23316595971095, 91.4702773561219
*End Instance
**  
*Instance, name=B-17-7, part=Block
18.00651606537, 2.80638031138205,       -3.075
18.00651606537, 2.80638031138205,       -3.075, 17.0318535417719, 2.96454627109299, -3.23316595971095, 91.4702773561219
*End Instance
**  
*Instance, name=B-19-7, part=Block
18.9551993634367, 2.49015254541359,       -3.075
18.9551993634367, 2.49015254541359,       -3.075, 17.9805368398385, 2.64831850512454, -3.23316595971095, 91.4702773561219
*End Instance
**  
*Instance, name=B-21-7, part=Block
19.9038826615033, 2.17392477944513,       -3.075
19.9038826615033, 2.17392477944513,       -3.075, 18.9292201379052, 2.33209073915608, -3.23316595971095, 91.4702773561219
*End Instance
**  
*Instance, name=B-4-5, part=Block
11.8400746279369, 4.86186079017701,        -2.25
11.8400746279369, 4.86186079017701,        -2.25, 10.8654121043387, 5.02002674988796, -2.40816595971094, 91.4702773561219
*End Instance
**  
*Instance, name=B-6-5, part=Block
12.7887579260035, 4.54563302420856,        -2.25
12.7887579260035, 4.54563302420856,        -2.25, 11.8140954024054, 4.7037989839195, -2.40816595971094, 91.4702773561219
*End Instance
**  
*Instance, name=B-8-5, part=Block
13.7374412240702, 4.2294052582401,        -2.25
13.7374412240702, 4.2294052582401,        -2.25, 12.762778700472, 4.38757121795105, -2.40816595971094, 91.4702773561219
*End Instance
**  
*Instance, name=B-10-5, part=Block
14.6861245221368, 3.91317749227164,        -2.25
14.6861245221368, 3.91317749227164,        -2.25, 13.7114619985386, 4.07134345198259, -2.40816595971094, 91.4702773561219
*End Instance
**  
*Instance, name=B-12-5, part=Block
15.6348078202034, 3.59694972630319,        -2.25
15.6348078202034, 3.59694972630319,        -2.25, 14.6601452966053, 3.75511568601413, -2.40816595971094, 91.4702773561219
*End Instance
**  
*Instance, name=B-14-5, part=Block
16.5834911182701, 3.28072196033473,        -2.25
16.5834911182701, 3.28072196033473,        -2.25, 15.6088285946719, 3.43888792004568, -2.40816595971094, 91.4702773561219
*End Instance
**  
*Instance, name=B-16-5, part=Block
17.5321744163367, 2.96449419436628,        -2.25
17.5321744163367, 2.96449419436628,        -2.25, 16.5575118927386, 3.12266015407722, -2.40816595971094, 91.4702773561219
*End Instance
**  
*Instance, name=B-18-5, part=Block
18.4808577144034, 2.64826642839782,        -2.25
18.4808577144034, 2.64826642839782,        -2.25, 17.5061951908052, 2.80643238810876, -2.40816595971094, 91.4702773561219
*End Instance
**  
*Instance, name=B-20-5, part=Block
19.42954101247, 2.33203866242936,        -2.25
19.42954101247, 2.33203866242936,        -2.25, 18.4548784888718, 2.49020462214031, -2.40816595971094, 91.4702773561219
*End Instance
**  
*Instance, name=B-22-5, part=Block
20.3782243105366, 2.01581089646091,        -2.25
20.3782243105366, 2.01581089646091,        -2.25, 19.4035617869385, 2.17397685617185, -2.40816595971094, 91.4702773561219
*End Instance
**  
*Instance, name=B-4-1, part=Block
11.8400746279369, 4.86186079017701, -0.0499999999999991
11.8400746279369, 4.86186079017701, -0.0499999999999991, 10.8654121043387, 5.02002674988796, -0.208165959710944, 91.4702773561219
*End Instance
**  
*Instance, name=B-6-1, part=Block
12.7887579260035, 4.54563302420856, -0.0499999999999991
12.7887579260035, 4.54563302420856, -0.0499999999999991, 11.8140954024054, 4.7037989839195, -0.208165959710944, 91.4702773561219
*End Instance
**  
*Instance, name=B-8-1, part=Block
13.7374412240702, 4.2294052582401, -0.0499999999999991
13.7374412240702, 4.2294052582401, -0.0499999999999991, 12.762778700472, 4.38757121795105, -0.208165959710944, 91.4702773561219
*End Instance
**  
*Instance, name=B-10-1, part=Block
14.6861245221368, 3.91317749227164, -0.0499999999999991
14.6861245221368, 3.91317749227164, -0.0499999999999991, 13.7114619985386, 4.07134345198259, -0.208165959710944, 91.4702773561219
*End Instance
**  
*Instance, name=B-12-1, part=Block
15.6348078202034, 3.59694972630319, -0.0499999999999991
15.6348078202034, 3.59694972630319, -0.0499999999999991, 14.6601452966053, 3.75511568601413, -0.208165959710944, 91.4702773561219
*End Instance
**  
*Instance, name=B-14-1, part=Block
16.5834911182701, 3.28072196033473, -0.0499999999999991
16.5834911182701, 3.28072196033473, -0.0499999999999991, 15.6088285946719, 3.43888792004568, -0.208165959710944, 91.4702773561219
*End Instance
**  
*Instance, name=B-16-1, part=Block
17.5321744163367, 2.96449419436628, -0.0499999999999991
17.5321744163367, 2.96449419436628, -0.0499999999999991, 16.5575118927386, 3.12266015407722, -0.208165959710944, 91.4702773561219
*End Instance
**  
*Instance, name=B-18-1, part=Block
18.4808577144034, 2.64826642839782, -0.0499999999999991
18.4808577144034, 2.64826642839782, -0.0499999999999991, 17.5061951908052, 2.80643238810876, -0.208165959710944, 91.4702773561219
*End Instance
**  
*Instance, name=B-20-1, part=Block
19.42954101247, 2.33203866242936, -0.0499999999999991
19.42954101247, 2.33203866242936, -0.0499999999999991, 18.4548784888718, 2.49020462214031, -0.208165959710944, 91.4702773561219
*End Instance
**  
*Instance, name=B-22-1, part=Block
20.3782243105366, 2.01581089646091, -0.0499999999999991
20.3782243105366, 2.01581089646091, -0.0499999999999991, 19.4035617869385, 2.17397685617185, -0.208165959710944, 91.4702773561219
*End Instance
**  
*Instance, name=B-3-5, part=Block
11.3657329789036, 5.01997467316124,       -1.975
11.3657329789036, 5.01997467316124,       -1.975, 10.3910704553054, 5.17814063287219, -2.13316595971094, 91.4702773561219
*End Instance
**  
*Instance, name=B-5-5, part=Block
12.3144162769702, 4.70374690719278,       -1.975
12.3144162769702, 4.70374690719278,       -1.975, 11.339753753372, 4.86191286690373, -2.13316595971094, 91.4702773561219
*End Instance
**  
*Instance, name=B-7-5, part=Block
13.2630995750368, 4.38751914122433,       -1.975
13.2630995750368, 4.38751914122433,       -1.975, 12.2884370514387, 4.54568510093527, -2.13316595971094, 91.4702773561219
*End Instance
**  
*Instance, name=B-9-5, part=Block
14.2117828731035, 4.07129137525587,       -1.975
14.2117828731035, 4.07129137525587,       -1.975, 13.2371203495053, 4.22945733496682, -2.13316595971094, 91.4702773561219
*End Instance
**  
*Instance, name=B-11-5, part=Block
15.1604661711701, 3.75506360928742,       -1.975
15.1604661711701, 3.75506360928742,       -1.975, 14.185803647572, 3.91322956899836, -2.13316595971094, 91.4702773561219
*End Instance
**  
*Instance, name=B-13-5, part=Block
16.1091494692368, 3.43883584331896,       -1.975
16.1091494692368, 3.43883584331896,       -1.975, 15.1344869456386, 3.5970018030299, -2.13316595971094, 91.4702773561219
*End Instance
**  
*Instance, name=B-15-5, part=Block
17.0578327673034, 3.1226080773505,       -1.975
17.0578327673034, 3.1226080773505,       -1.975, 16.0831702437052, 3.28077403706145, -2.13316595971094, 91.4702773561219
*End Instance
**  
*Instance, name=B-17-5, part=Block
18.00651606537, 2.80638031138205,       -1.975
18.00651606537, 2.80638031138205,       -1.975, 17.0318535417719, 2.96454627109299, -2.13316595971094, 91.4702773561219
*End Instance
**  
*Instance, name=B-19-5, part=Block
18.9551993634367, 2.49015254541359,       -1.975
18.9551993634367, 2.49015254541359,       -1.975, 17.9805368398385, 2.64831850512454, -2.13316595971094, 91.4702773561219
*End Instance
**  
*Instance, name=B-21-5, part=Block
19.9038826615033, 2.17392477944513,       -1.975
19.9038826615033, 2.17392477944513,       -1.975, 18.9292201379052, 2.33209073915608, -2.13316595971094, 91.4702773561219
*End Instance
**  
*Instance, name=B-4-3, part=Block
11.8400746279369, 4.86186079017701,        -1.15
11.8400746279369, 4.86186079017701,        -1.15, 10.8654121043387, 5.02002674988796, -1.30816595971094, 91.4702773561219
*End Instance
**  
*Instance, name=B-6-3, part=Block
12.7887579260035, 4.54563302420856,        -1.15
12.7887579260035, 4.54563302420856,        -1.15, 11.8140954024054, 4.7037989839195, -1.30816595971094, 91.4702773561219
*End Instance
**  
*Instance, name=B-8-3, part=Block
13.7374412240702, 4.2294052582401,        -1.15
13.7374412240702, 4.2294052582401,        -1.15, 12.762778700472, 4.38757121795105, -1.30816595971094, 91.4702773561219
*End Instance
**  
*Instance, name=B-10-3, part=Block
14.6861245221368, 3.91317749227164,        -1.15
14.6861245221368, 3.91317749227164,        -1.15, 13.7114619985386, 4.07134345198259, -1.30816595971094, 91.4702773561219
*End Instance
**  
*Instance, name=B-12-3, part=Block
15.6348078202034, 3.59694972630319,        -1.15
15.6348078202034, 3.59694972630319,        -1.15, 14.6601452966053, 3.75511568601413, -1.30816595971094, 91.4702773561219
*End Instance
**  
*Instance, name=B-14-3, part=Block
16.5834911182701, 3.28072196033473,        -1.15
16.5834911182701, 3.28072196033473,        -1.15, 15.6088285946719, 3.43888792004568, -1.30816595971094, 91.4702773561219
*End Instance
**  
*Instance, name=B-16-3, part=Block
17.5321744163367, 2.96449419436628,        -1.15
17.5321744163367, 2.96449419436628,        -1.15, 16.5575118927386, 3.12266015407722, -1.30816595971094, 91.4702773561219
*End Instance
**  
*Instance, name=B-18-3, part=Block
18.4808577144034, 2.64826642839782,        -1.15
18.4808577144034, 2.64826642839782,        -1.15, 17.5061951908052, 2.80643238810876, -1.30816595971094, 91.4702773561219
*End Instance
**  
*Instance, name=B-20-3, part=Block
19.42954101247, 2.33203866242936,        -1.15
19.42954101247, 2.33203866242936,        -1.15, 18.4548784888718, 2.49020462214031, -1.30816595971094, 91.4702773561219
*End Instance
**  
*Instance, name=B-22-3, part=Block
20.3782243105366, 2.01581089646091,        -1.15
20.3782243105366, 2.01581089646091,        -1.15, 19.4035617869385, 2.17397685617185, -1.30816595971094, 91.4702773561219
*End Instance
**  
*Instance, name=B-3-3, part=Block
11.3657329789036, 5.01997467316124,       -0.875
11.3657329789036, 5.01997467316124,       -0.875, 10.3910704553054, 5.17814063287219, -1.03316595971095, 91.4702773561219
*End Instance
**  
*Instance, name=B-5-3, part=Block
12.3144162769702, 4.70374690719278,       -0.875
12.3144162769702, 4.70374690719278,       -0.875, 11.339753753372, 4.86191286690373, -1.03316595971095, 91.4702773561219
*End Instance
**  
*Instance, name=B-7-3, part=Block
13.2630995750368, 4.38751914122433,       -0.875
13.2630995750368, 4.38751914122433,       -0.875, 12.2884370514387, 4.54568510093527, -1.03316595971095, 91.4702773561219
*End Instance
**  
*Instance, name=B-9-3, part=Block
14.2117828731035, 4.07129137525587,       -0.875
14.2117828731035, 4.07129137525587,       -0.875, 13.2371203495053, 4.22945733496682, -1.03316595971095, 91.4702773561219
*End Instance
**  
*Instance, name=B-11-3, part=Block
15.1604661711701, 3.75506360928742,       -0.875
15.1604661711701, 3.75506360928742,       -0.875, 14.185803647572, 3.91322956899836, -1.03316595971095, 91.4702773561219
*End Instance
**  
*Instance, name=B-13-3, part=Block
16.1091494692368, 3.43883584331896,       -0.875
16.1091494692368, 3.43883584331896,       -0.875, 15.1344869456386, 3.5970018030299, -1.03316595971095, 91.4702773561219
*End Instance
**  
*Instance, name=B-15-3, part=Block
17.0578327673034, 3.1226080773505,       -0.875
17.0578327673034, 3.1226080773505,       -0.875, 16.0831702437052, 3.28077403706145, -1.03316595971095, 91.4702773561219
*End Instance
**  
*Instance, name=B-17-3, part=Block
18.00651606537, 2.80638031138205,       -0.875
18.00651606537, 2.80638031138205,       -0.875, 17.0318535417719, 2.96454627109299, -1.03316595971095, 91.4702773561219
*End Instance
**  
*Instance, name=B-19-3, part=Block
18.9551993634367, 2.49015254541359,       -0.875
18.9551993634367, 2.49015254541359,       -0.875, 17.9805368398385, 2.64831850512454, -1.03316595971095, 91.4702773561219
*End Instance
**  
*Instance, name=B-21-3, part=Block
19.9038826615033, 2.17392477944513,       -0.875
19.9038826615033, 2.17392477944513,       -0.875, 18.9292201379052, 2.33209073915608, -1.03316595971095, 91.4702773561219
*End Instance
**  
*Instance, name=Dike, part=DikeRigid
   67.511216,   -16.666352, -2.50000000000001
   67.511216,   -16.666352, -2.50000000000001,    67.511216,   -15.666352, -2.50000000000001,         180.
*Surface, type=CYLINDER, name=Surf-2
START, 40.611216042617, 16.666351872149
 LINE, 46.611216042617, 18.666351872149
 LINE, 46.6586502075094, 18.524049377438
 LINE, 57.1586502075196, 22.0240493774414
 LINE, 57.111216042617, 22.166351872149
 LINE, 65.511216042617, 24.966351872149
 LINE, 67.511216042617, 24.966351872149
 LINE, 67.511216042617, 16.666351872149
 LINE, 40.611216042617, 16.666351872149
*End Instance
**  
*Instance, name=Wall-1, part=Wall
      -37.25,          3.5,         -0.5
      -37.25,          3.5,         -0.5, -38.2500000126881,          3.5,         -0.5, 89.9999992730282
*Surface, type=CYLINDER, name=Surf-Wall
START,        37.25,          4.5
 LINE,        37.25,           5.
 LINE,        63.75,           5.
 LINE,        63.75,          4.5
 LINE,        37.25,          4.5
*End Instance
**  
*Instance, name=Wall-2, part=Wall
      -37.25,          3.5,           5.
      -37.25,          3.5,           5., -38.2500000126881,          3.5,           5., 89.9999992730282
*Surface, type=CYLINDER, name=Surf-Wall
START,        37.25,          4.5
 LINE,        37.25,           5.
 LINE,        63.75,           5.
 LINE,        63.75,          4.5
 LINE,        37.25,          4.5
*End Instance
**  
*Node
      1,           0.,           0.,           0.
*Node
      2,           0.,           0.,           1.
*Node
      3,           0.,           0.,           2.
*Nset, nset=_PickedSet426, internal, instance=B-1-10, generate
   1,  120,    1
*Nset, nset=_PickedSet426, internal, instance=B-1-9, generate
   1,  192,    1
*Nset, nset=_PickedSet426, internal, instance=B-1-8, generate
   1,  192,    1
*Nset, nset=_PickedSet426, internal, instance=B-1-6, generate
   1,  192,    1
*Nset, nset=_PickedSet426, internal, instance=B-2-3, generate
   1,  192,    1
*Nset, nset=_PickedSet426, internal, instance=B-21-10, generate
   1,  120,    1
*Nset, nset=_PickedSet426, internal, instance=B-6-6, generate
   1,  192,    1
*Nset, nset=_PickedSet426, internal, instance=B-13-1, generate
   1,  120,    1
*Nset, nset=_PickedSet426, internal, instance=B-21-5, generate
   1,  192,    1
*Nset, nset=_PickedSet426, internal, instance=B-9-4, generate
   1,  192,    1
*Nset, nset=_PickedSet426, internal, instance=B-17-7, generate
   1,  192,    1
*Nset, nset=_PickedSet426, internal, instance=B-14-8, generate
   1,  192,    1
*Nset, nset=_PickedSet426, internal, instance=B-17-6, generate
   1,  192,    1
*Nset, nset=_PickedSet426, internal, instance=B-6-7, generate
   1,  192,    1
*Nset, nset=_PickedSet426, internal, instance=B-13-3, generate
   1,  192,    1
*Nset, nset=_PickedSet426, internal, instance=B-22-2, generate
   1,  192,    1
*Nset, nset=_PickedSet426, internal, instance=B-10-1, generate
   1,  192,    1
*Nset, nset=_PickedSet426, internal, instance=B-5-10, generate
   1,  120,    1
*Nset, nset=_PickedSet426, internal, instance=B-17-9, generate
   1,  192,    1
*Nset, nset=_PickedSet426, internal, instance=B-22-6, generate
   1,  192,    1
*Nset, nset=_PickedSet426, internal, instance=B-10-9, generate
   1,  192,    1
*Nset, nset=_PickedSet426, internal, instance=B-18-3, generate
   1,  192,    1
*Nset, nset=_PickedSet426, internal, instance=B-6-2, generate
   1,  192,    1
*Nset, nset=_PickedSet426, internal, instance=B-14-5, generate
   1,  192,    1
*Nset, nset=_PickedSet426, internal, instance=B-9-8, generate
   1,  192,    1
*Nset, nset=_PickedSet426, internal, instance=B-14-4, generate
   1,  192,    1
*Nset, nset=_PickedSet426, internal, instance=B-22-7, generate
   1,  192,    1
*Nset, nset=_PickedSet426, internal, instance=B-17-2, generate
   1,  192,    1
*Nset, nset=_PickedSet426, internal, instance=B-5-5, generate
   1,  192,    1
*Nset, nset=_PickedSet426, internal, instance=B-1-2, generate
   1,  192,    1
*Nset, nset=_PickedSet426, internal, instance=B-2-7, generate
   1,  192,    1
*Nset, nset=_PickedSet426, internal, instance=B-9-9, generate
   1,  192,    1
*Nset, nset=_PickedSet426, internal, instance=B-14-6, generate
   1,  192,    1
*Nset, nset=_PickedSet426, internal, instance=B-21-1, generate
   1,  120,    1
*Nset, nset=_PickedSet426, internal, instance=B-10-3, generate
   1,  192,    1
*Nset, nset=_PickedSet426, internal, instance=B-17-4, generate
   1,  192,    1
*Nset, nset=_PickedSet426, internal, instance=B-6-5, generate
   1,  192,    1
*Nset, nset=_PickedSet426, internal, instance=B-22-8, generate
   1,  192,    1
*Nset, nset=_PickedSet426, internal, instance=B-6-4, generate
   1,  192,    1
*Nset, nset=_PickedSet426, internal, instance=B-14-7, generate
   1,  192,    1
*Nset, nset=_PickedSet426, internal, instance=B-21-3, generate
   1,  192,    1
*Nset, nset=_PickedSet426, internal, instance=B-9-2, generate
   1,  192,    1
*Nset, nset=_PickedSet426, internal, instance=B-18-1, generate
   1,  192,    1
*Nset, nset=_PickedSet426, internal, instance=B-13-10, generate
   1,  120,    1
*Nset, nset=_PickedSet426, internal, instance=B-6-8, generate
   1,  192,    1
*Nset, nset=_PickedSet426, internal, instance=B-9-6, generate
   1,  192,    1
*Nset, nset=_PickedSet426, internal, instance=B-18-9, generate
   1,  192,    1
*Nset, nset=_PickedSet426, internal, instance=B-5-3, generate
   1,  192,    1
*Nset, nset=_PickedSet426, internal, instance=B-14-2, generate
   1,  192,    1
*Nset, nset=_PickedSet426, internal, instance=B-22-5, generate
   1,  192,    1
*Nset, nset=_PickedSet426, internal, instance=B-17-8, generate
   1,  192,    1
*Nset, nset=_PickedSet426, internal, instance=B-22-4, generate
   1,  192,    1
*Nset, nset=_PickedSet426, internal, instance=B-9-7, generate
   1,  192,    1
*Nset, nset=_PickedSet426, internal, instance=B-5-1, generate
   1,  120,    1
*Nset, nset=_PickedSet426, internal, instance=B-13-5, generate
   1,  192,    1
*Nset, nset=_PickedSet426, internal, instance=B-1-4, generate
   1,  192,    1
*Nset, nset=_PickedSet426, internal, instance=B-2-5, generate
   1,  192,    1
*Nset, nset=_PickedSet426, internal, instance=B-5-9, generate
   1,  192,    1
*Nset, nset=_PickedSet426, internal, instance=B-10-6, generate
   1,  192,    1
*Nset, nset=_PickedSet426, internal, instance=B-17-1, generate
   1,  120,    1
*Nset, nset=_PickedSet426, internal, instance=B-6-3, generate
   1,  192,    1
*Nset, nset=_PickedSet426, internal, instance=B-13-4, generate
   1,  192,    1
*Nset, nset=_PickedSet426, internal, instance=B-21-7, generate
   1,  192,    1
*Nset, nset=_PickedSet426, internal, instance=B-18-8, generate
   1,  192,    1
*Nset, nset=_PickedSet426, internal, instance=B-21-6, generate
   1,  192,    1
*Nset, nset=_PickedSet426, internal, instance=B-10-7, generate
   1,  192,    1
*Nset, nset=_PickedSet426, internal, instance=B-17-3, generate
   1,  192,    1
*Nset, nset=_PickedSet426, internal, instance=B-5-2, generate
   1,  192,    1
*Nset, nset=_PickedSet426, internal, instance=B-14-1, generate
   1,  192,    1
*Nset, nset=_PickedSet426, internal, instance=B-9-10, generate
   1,  120,    1
*Nset, nset=_PickedSet426, internal, instance=B-21-9, generate
   1,  192,    1
*Nset, nset=_PickedSet426, internal, instance=B-5-6, generate
   1,  192,    1
*Nset, nset=_PickedSet426, internal, instance=B-14-9, generate
   1,  192,    1
*Nset, nset=_PickedSet426, internal, instance=B-22-3, generate
   1,  192,    1
*Nset, nset=_PickedSet426, internal, instance=B-10-2, generate
   1,  192,    1
*Nset, nset=_PickedSet426, internal, instance=B-18-5, generate
   1,  192,    1
*Nset, nset=_PickedSet426, internal, instance=B-13-8, generate
   1,  192,    1
*Nset, nset=_PickedSet426, internal, instance=B-18-4, generate
   1,  192,    1
*Nset, nset=_PickedSet426, internal, instance=B-5-7, generate
   1,  192,    1
*Nset, nset=_PickedSet426, internal, instance=B-21-2, generate
   1,  192,    1
*Nset, nset=_PickedSet426, internal, instance=B-9-5, generate
   1,  192,    1
*Nset, nset=_PickedSet426, internal, instance=B-2-1, generate
   1,  192,    1
*Nset, nset=_PickedSet426, internal, instance=B-2-9, generate
   1,  192,    1
*Nset, nset=_PickedSet426, internal, instance=B-13-9, generate
   1,  192,    1
*Nset, nset=_PickedSet426, internal, instance=B-18-6, generate
   1,  192,    1
*Nset, nset=_PickedSet426, internal, instance=B-6-9, generate
   1,  192,    1
*Nset, nset=_PickedSet426, internal, instance=B-14-3, generate
   1,  192,    1
*Nset, nset=_PickedSet426, internal, instance=B-21-4, generate
   1,  192,    1
*Nset, nset=_PickedSet426, internal, instance=B-10-5, generate
   1,  192,    1
*Nset, nset=_PickedSet426, internal, instance=B-5-8, generate
   1,  192,    1
*Nset, nset=_PickedSet426, internal, instance=B-10-4, generate
   1,  192,    1
*Nset, nset=_PickedSet426, internal, instance=B-18-7, generate
   1,  192,    1
*Nset, nset=_PickedSet426, internal, instance=B-13-2, generate
   1,  192,    1
*Nset, nset=_PickedSet426, internal, instance=B-22-1, generate
   1,  192,    1
*Nset, nset=_PickedSet426, internal, instance=B-17-10, generate
   1,  120,    1
*Nset, nset=_PickedSet426, internal, instance=B-10-8, generate
   1,  192,    1
*Nset, nset=_PickedSet426, internal, instance=B-13-6, generate
   1,  192,    1
*Nset, nset=_PickedSet426, internal, instance=B-22-9, generate
   1,  192,    1
*Nset, nset=_PickedSet426, internal, instance=B-9-3, generate
   1,  192,    1
*Nset, nset=_PickedSet426, internal, instance=B-18-2, generate
   1,  192,    1
*Nset, nset=_PickedSet426, internal, instance=B-6-1, generate
   1,  192,    1
*Nset, nset=_PickedSet426, internal, instance=B-21-8, generate
   1,  192,    1
*Nset, nset=_PickedSet426, internal, instance=B-5-4, generate
   1,  192,    1
*Nset, nset=_PickedSet426, internal, instance=B-13-7, generate
   1,  192,    1
*Nset, nset=_PickedSet426, internal, instance=B-9-1, generate
   1,  120,    1
*Nset, nset=_PickedSet426, internal, instance=B-17-5, generate
   1,  192,    1
*Nset, nset=_PickedSet426, internal, instance=B-1-7, generate
   1,  192,    1
*Nset, nset=_PickedSet426, internal, instance=B-1-5, generate
   1,  192,    1
*Nset, nset=_PickedSet426, internal, instance=B-2-4, generate
   1,  192,    1
*Nset, nset=_PickedSet426, internal, instance=B-3-9, generate
   1,  192,    1
*Nset, nset=_PickedSet426, internal, instance=B-8-6, generate
   1,  192,    1
*Nset, nset=_PickedSet426, internal, instance=B-15-1, generate
   1,  120,    1
*Nset, nset=_PickedSet426, internal, instance=B-4-3, generate
   1,  192,    1
*Nset, nset=_PickedSet426, internal, instance=B-11-4, generate
   1,  192,    1
*Nset, nset=_PickedSet426, internal, instance=B-19-7, generate
   1,  192,    1
*Nset, nset=_PickedSet426, internal, instance=B-16-8, generate
   1,  192,    1
*Nset, nset=_PickedSet426, internal, instance=B-19-6, generate
   1,  192,    1
*Nset, nset=_PickedSet426, internal, instance=B-8-7, generate
   1,  192,    1
*Nset, nset=_PickedSet426, internal, instance=B-15-3, generate
   1,  192,    1
*Nset, nset=_PickedSet426, internal, instance=B-3-2, generate
   1,  192,    1
*Nset, nset=_PickedSet426, internal, instance=B-12-1, generate
   1,  192,    1
*Nset, nset=_PickedSet426, internal, instance=B-7-10, generate
   1,  120,    1
*Nset, nset=_PickedSet426, internal, instance=B-19-9, generate
   1,  192,    1
*Nset, nset=_PickedSet426, internal, instance=B-3-6, generate
   1,  192,    1
*Nset, nset=_PickedSet426, internal, instance=B-12-9, generate
   1,  192,    1
*Nset, nset=_PickedSet426, internal, instance=B-20-3, generate
   1,  192,    1
*Nset, nset=_PickedSet426, internal, instance=B-8-2, generate
   1,  192,    1
*Nset, nset=_PickedSet426, internal, instance=B-16-5, generate
   1,  192,    1
*Nset, nset=_PickedSet426, internal, instance=B-11-8, generate
   1,  192,    1
*Nset, nset=_PickedSet426, internal, instance=B-16-4, generate
   1,  192,    1
*Nset, nset=_PickedSet426, internal, instance=B-3-7, generate
   1,  192,    1
*Nset, nset=_PickedSet426, internal, instance=B-19-2, generate
   1,  192,    1
*Nset, nset=_PickedSet426, internal, instance=B-7-5, generate
   1,  192,    1
*Nset, nset=_PickedSet426, internal, instance=B-1-1, generate
   1,  120,    1
*Nset, nset=_PickedSet426, internal, instance=B-2-8, generate
   1,  192,    1
*Nset, nset=_PickedSet426, internal, instance=B-11-9, generate
   1,  192,    1
*Nset, nset=_PickedSet426, internal, instance=B-16-6, generate
   1,  192,    1
*Nset, nset=_PickedSet426, internal, instance=B-4-9, generate
   1,  192,    1
*Nset, nset=_PickedSet426, internal, instance=B-12-3, generate
   1,  192,    1
*Nset, nset=_PickedSet426, internal, instance=B-19-4, generate
   1,  192,    1
*Nset, nset=_PickedSet426, internal, instance=B-8-5, generate
   1,  192,    1
*Nset, nset=_PickedSet426, internal, instance=B-3-8, generate
   1,  192,    1
*Nset, nset=_PickedSet426, internal, instance=B-8-4, generate
   1,  192,    1
*Nset, nset=_PickedSet426, internal, instance=B-16-7, generate
   1,  192,    1
*Nset, nset=_PickedSet426, internal, instance=B-11-2, generate
   1,  192,    1
*Nset, nset=_PickedSet426, internal, instance=B-20-1, generate
   1,  192,    1
*Nset, nset=_PickedSet426, internal, instance=B-15-10, generate
   1,  120,    1
*Nset, nset=_PickedSet426, internal, instance=B-8-8, generate
   1,  192,    1
*Nset, nset=_PickedSet426, internal, instance=B-11-6, generate
   1,  192,    1
*Nset, nset=_PickedSet426, internal, instance=B-20-9, generate
   1,  192,    1
*Nset, nset=_PickedSet426, internal, instance=B-7-3, generate
   1,  192,    1
*Nset, nset=_PickedSet426, internal, instance=B-16-2, generate
   1,  192,    1
*Nset, nset=_PickedSet426, internal, instance=B-4-1, generate
   1,  192,    1
*Nset, nset=_PickedSet426, internal, instance=B-19-8, generate
   1,  192,    1
*Nset, nset=_PickedSet426, internal, instance=B-3-4, generate
   1,  192,    1
*Nset, nset=_PickedSet426, internal, instance=B-11-7, generate
   1,  192,    1
*Nset, nset=_PickedSet426, internal, instance=B-7-1, generate
   1,  120,    1
*Nset, nset=_PickedSet426, internal, instance=B-15-5, generate
   1,  192,    1
*Nset, nset=_PickedSet426, internal, instance=B-1-3, generate
   1,  192,    1
*Nset, nset=_PickedSet426, internal, instance=B-2-6, generate
   1,  192,    1
*Nset, nset=_PickedSet426, internal, instance=B-7-9, generate
   1,  192,    1
*Nset, nset=_PickedSet426, internal, instance=B-12-6, generate
   1,  192,    1
*Nset, nset=_PickedSet426, internal, instance=B-19-1, generate
   1,  120,    1
*Nset, nset=_PickedSet426, internal, instance=B-8-3, generate
   1,  192,    1
*Nset, nset=_PickedSet426, internal, instance=B-15-4, generate
   1,  192,    1
*Nset, nset=_PickedSet426, internal, instance=B-4-5, generate
   1,  192,    1
*Nset, nset=_PickedSet426, internal, instance=B-20-8, generate
   1,  192,    1
*Nset, nset=_PickedSet426, internal, instance=B-4-4, generate
   1,  192,    1
*Nset, nset=_PickedSet426, internal, instance=B-12-7, generate
   1,  192,    1
*Nset, nset=_PickedSet426, internal, instance=B-19-3, generate
   1,  192,    1
*Nset, nset=_PickedSet426, internal, instance=B-7-2, generate
   1,  192,    1
*Nset, nset=_PickedSet426, internal, instance=B-16-1, generate
   1,  192,    1
*Nset, nset=_PickedSet426, internal, instance=B-11-10, generate
   1,  120,    1
*Nset, nset=_PickedSet426, internal, instance=B-4-8, generate
   1,  192,    1
*Nset, nset=_PickedSet426, internal, instance=B-7-6, generate
   1,  192,    1
*Nset, nset=_PickedSet426, internal, instance=B-16-9, generate
   1,  192,    1
*Nset, nset=_PickedSet426, internal, instance=B-3-3, generate
   1,  192,    1
*Nset, nset=_PickedSet426, internal, instance=B-12-2, generate
   1,  192,    1
*Nset, nset=_PickedSet426, internal, instance=B-20-5, generate
   1,  192,    1
*Nset, nset=_PickedSet426, internal, instance=B-15-8, generate
   1,  192,    1
*Nset, nset=_PickedSet426, internal, instance=B-20-4, generate
   1,  192,    1
*Nset, nset=_PickedSet426, internal, instance=B-7-7, generate
   1,  192,    1
*Nset, nset=_PickedSet426, internal, instance=B-3-1, generate
   1,  120,    1
*Nset, nset=_PickedSet426, internal, instance=B-11-5, generate
   1,  192,    1
*Nset, nset=_PickedSet426, internal, instance=B-2-2, generate
   1,  192,    1
*Nset, nset=_PickedSet426, internal, instance=B-3-10, generate
   1,  120,    1
*Nset, nset=_PickedSet426, internal, instance=B-15-9, generate
   1,  192,    1
*Nset, nset=_PickedSet426, internal, instance=B-20-6, generate
   1,  192,    1
*Nset, nset=_PickedSet426, internal, instance=B-8-9, generate
   1,  192,    1
*Nset, nset=_PickedSet426, internal, instance=B-16-3, generate
   1,  192,    1
*Nset, nset=_PickedSet426, internal, instance=B-4-2, generate
   1,  192,    1
*Nset, nset=_PickedSet426, internal, instance=B-12-5, generate
   1,  192,    1
*Nset, nset=_PickedSet426, internal, instance=B-7-8, generate
   1,  192,    1
*Nset, nset=_PickedSet426, internal, instance=B-12-4, generate
   1,  192,    1
*Nset, nset=_PickedSet426, internal, instance=B-20-7, generate
   1,  192,    1
*Nset, nset=_PickedSet426, internal, instance=B-15-2, generate
   1,  192,    1
*Nset, nset=_PickedSet426, internal, instance=B-3-5, generate
   1,  192,    1
*Nset, nset=_PickedSet426, internal, instance=B-19-10, generate
   1,  120,    1
*Nset, nset=_PickedSet426, internal, instance=B-12-8, generate
   1,  192,    1
*Nset, nset=_PickedSet426, internal, instance=B-15-6, generate
   1,  192,    1
*Nset, nset=_PickedSet426, internal, instance=B-4-7, generate
   1,  192,    1
*Nset, nset=_PickedSet426, internal, instance=B-11-3, generate
   1,  192,    1
*Nset, nset=_PickedSet426, internal, instance=B-20-2, generate
   1,  192,    1
*Nset, nset=_PickedSet426, internal, instance=B-8-1, generate
   1,  192,    1
*Nset, nset=_PickedSet426, internal, instance=B-4-6, generate
   1,  192,    1
*Nset, nset=_PickedSet426, internal, instance=B-7-4, generate
   1,  192,    1
*Nset, nset=_PickedSet426, internal, instance=B-15-7, generate
   1,  192,    1
*Nset, nset=_PickedSet426, internal, instance=B-11-1, generate
   1,  120,    1
*Nset, nset=_PickedSet426, internal, instance=B-19-5, generate
   1,  192,    1
*Elset, elset=_PickedSet426, internal, instance=B-1-10, generate
  1,  56,   1
*Elset, elset=_PickedSet426, internal, instance=B-1-9, generate
  1,  98,   1
*Elset, elset=_PickedSet426, internal, instance=B-1-8, generate
  1,  98,   1
*Elset, elset=_PickedSet426, internal, instance=B-1-6, generate
  1,  98,   1
*Elset, elset=_PickedSet426, internal, instance=B-2-3, generate
  1,  98,   1
*Elset, elset=_PickedSet426, internal, instance=B-21-10, generate
  1,  56,   1
*Elset, elset=_PickedSet426, internal, instance=B-6-6, generate
  1,  98,   1
*Elset, elset=_PickedSet426, internal, instance=B-13-1, generate
  1,  56,   1
*Elset, elset=_PickedSet426, internal, instance=B-21-5, generate
  1,  98,   1
*Elset, elset=_PickedSet426, internal, instance=B-9-4, generate
  1,  98,   1
*Elset, elset=_PickedSet426, internal, instance=B-17-7, generate
  1,  98,   1
*Elset, elset=_PickedSet426, internal, instance=B-14-8, generate
  1,  98,   1
*Elset, elset=_PickedSet426, internal, instance=B-17-6, generate
  1,  98,   1
*Elset, elset=_PickedSet426, internal, instance=B-6-7, generate
  1,  98,   1
*Elset, elset=_PickedSet426, internal, instance=B-13-3, generate
  1,  98,   1
*Elset, elset=_PickedSet426, internal, instance=B-22-2, generate
  1,  98,   1
*Elset, elset=_PickedSet426, internal, instance=B-10-1, generate
  1,  98,   1
*Elset, elset=_PickedSet426, internal, instance=B-5-10, generate
  1,  56,   1
*Elset, elset=_PickedSet426, internal, instance=B-17-9, generate
  1,  98,   1
*Elset, elset=_PickedSet426, internal, instance=B-22-6, generate
  1,  98,   1
*Elset, elset=_PickedSet426, internal, instance=B-10-9, generate
  1,  98,   1
*Elset, elset=_PickedSet426, internal, instance=B-18-3, generate
  1,  98,   1
*Elset, elset=_PickedSet426, internal, instance=B-6-2, generate
  1,  98,   1
*Elset, elset=_PickedSet426, internal, instance=B-14-5, generate
  1,  98,   1
*Elset, elset=_PickedSet426, internal, instance=B-9-8, generate
  1,  98,   1
*Elset, elset=_PickedSet426, internal, instance=B-14-4, generate
  1,  98,   1
*Elset, elset=_PickedSet426, internal, instance=B-22-7, generate
  1,  98,   1
*Elset, elset=_PickedSet426, internal, instance=B-17-2, generate
  1,  98,   1
*Elset, elset=_PickedSet426, internal, instance=B-5-5, generate
  1,  98,   1
*Elset, elset=_PickedSet426, internal, instance=B-1-2, generate
  1,  98,   1
*Elset, elset=_PickedSet426, internal, instance=B-2-7, generate
  1,  98,   1
*Elset, elset=_PickedSet426, internal, instance=B-9-9, generate
  1,  98,   1
*Elset, elset=_PickedSet426, internal, instance=B-14-6, generate
  1,  98,   1
*Elset, elset=_PickedSet426, internal, instance=B-21-1, generate
  1,  56,   1
*Elset, elset=_PickedSet426, internal, instance=B-10-3, generate
  1,  98,   1
*Elset, elset=_PickedSet426, internal, instance=B-17-4, generate
  1,  98,   1
*Elset, elset=_PickedSet426, internal, instance=B-6-5, generate
  1,  98,   1
*Elset, elset=_PickedSet426, internal, instance=B-22-8, generate
  1,  98,   1
*Elset, elset=_PickedSet426, internal, instance=B-6-4, generate
  1,  98,   1
*Elset, elset=_PickedSet426, internal, instance=B-14-7, generate
  1,  98,   1
*Elset, elset=_PickedSet426, internal, instance=B-21-3, generate
  1,  98,   1
*Elset, elset=_PickedSet426, internal, instance=B-9-2, generate
  1,  98,   1
*Elset, elset=_PickedSet426, internal, instance=B-18-1, generate
  1,  98,   1
*Elset, elset=_PickedSet426, internal, instance=B-13-10, generate
  1,  56,   1
*Elset, elset=_PickedSet426, internal, instance=B-6-8, generate
  1,  98,   1
*Elset, elset=_PickedSet426, internal, instance=B-9-6, generate
  1,  98,   1
*Elset, elset=_PickedSet426, internal, instance=B-18-9, generate
  1,  98,   1
*Elset, elset=_PickedSet426, internal, instance=B-5-3, generate
  1,  98,   1
*Elset, elset=_PickedSet426, internal, instance=B-14-2, generate
  1,  98,   1
*Elset, elset=_PickedSet426, internal, instance=B-22-5, generate
  1,  98,   1
*Elset, elset=_PickedSet426, internal, instance=B-17-8, generate
  1,  98,   1
*Elset, elset=_PickedSet426, internal, instance=B-22-4, generate
  1,  98,   1
*Elset, elset=_PickedSet426, internal, instance=B-9-7, generate
  1,  98,   1
*Elset, elset=_PickedSet426, internal, instance=B-5-1, generate
  1,  56,   1
*Elset, elset=_PickedSet426, internal, instance=B-13-5, generate
  1,  98,   1
*Elset, elset=_PickedSet426, internal, instance=B-1-4, generate
  1,  98,   1
*Elset, elset=_PickedSet426, internal, instance=B-2-5, generate
  1,  98,   1
*Elset, elset=_PickedSet426, internal, instance=B-5-9, generate
  1,  98,   1
*Elset, elset=_PickedSet426, internal, instance=B-10-6, generate
  1,  98,   1
*Elset, elset=_PickedSet426, internal, instance=B-17-1, generate
  1,  56,   1
*Elset, elset=_PickedSet426, internal, instance=B-6-3, generate
  1,  98,   1
*Elset, elset=_PickedSet426, internal, instance=B-13-4, generate
  1,  98,   1
*Elset, elset=_PickedSet426, internal, instance=B-21-7, generate
  1,  98,   1
*Elset, elset=_PickedSet426, internal, instance=B-18-8, generate
  1,  98,   1
*Elset, elset=_PickedSet426, internal, instance=B-21-6, generate
  1,  98,   1
*Elset, elset=_PickedSet426, internal, instance=B-10-7, generate
  1,  98,   1
*Elset, elset=_PickedSet426, internal, instance=B-17-3, generate
  1,  98,   1
*Elset, elset=_PickedSet426, internal, instance=B-5-2, generate
  1,  98,   1
*Elset, elset=_PickedSet426, internal, instance=B-14-1, generate
  1,  98,   1
*Elset, elset=_PickedSet426, internal, instance=B-9-10, generate
  1,  56,   1
*Elset, elset=_PickedSet426, internal, instance=B-21-9, generate
  1,  98,   1
*Elset, elset=_PickedSet426, internal, instance=B-5-6, generate
  1,  98,   1
*Elset, elset=_PickedSet426, internal, instance=B-14-9, generate
  1,  98,   1
*Elset, elset=_PickedSet426, internal, instance=B-22-3, generate
  1,  98,   1
*Elset, elset=_PickedSet426, internal, instance=B-10-2, generate
  1,  98,   1
*Elset, elset=_PickedSet426, internal, instance=B-18-5, generate
  1,  98,   1
*Elset, elset=_PickedSet426, internal, instance=B-13-8, generate
  1,  98,   1
*Elset, elset=_PickedSet426, internal, instance=B-18-4, generate
  1,  98,   1
*Elset, elset=_PickedSet426, internal, instance=B-5-7, generate
  1,  98,   1
*Elset, elset=_PickedSet426, internal, instance=B-21-2, generate
  1,  98,   1
*Elset, elset=_PickedSet426, internal, instance=B-9-5, generate
  1,  98,   1
*Elset, elset=_PickedSet426, internal, instance=B-2-1, generate
  1,  98,   1
*Elset, elset=_PickedSet426, internal, instance=B-2-9, generate
  1,  98,   1
*Elset, elset=_PickedSet426, internal, instance=B-13-9, generate
  1,  98,   1
*Elset, elset=_PickedSet426, internal, instance=B-18-6, generate
  1,  98,   1
*Elset, elset=_PickedSet426, internal, instance=B-6-9, generate
  1,  98,   1
*Elset, elset=_PickedSet426, internal, instance=B-14-3, generate
  1,  98,   1
*Elset, elset=_PickedSet426, internal, instance=B-21-4, generate
  1,  98,   1
*Elset, elset=_PickedSet426, internal, instance=B-10-5, generate
  1,  98,   1
*Elset, elset=_PickedSet426, internal, instance=B-5-8, generate
  1,  98,   1
*Elset, elset=_PickedSet426, internal, instance=B-10-4, generate
  1,  98,   1
*Elset, elset=_PickedSet426, internal, instance=B-18-7, generate
  1,  98,   1
*Elset, elset=_PickedSet426, internal, instance=B-13-2, generate
  1,  98,   1
*Elset, elset=_PickedSet426, internal, instance=B-22-1, generate
  1,  98,   1
*Elset, elset=_PickedSet426, internal, instance=B-17-10, generate
  1,  56,   1
*Elset, elset=_PickedSet426, internal, instance=B-10-8, generate
  1,  98,   1
*Elset, elset=_PickedSet426, internal, instance=B-13-6, generate
  1,  98,   1
*Elset, elset=_PickedSet426, internal, instance=B-22-9, generate
  1,  98,   1
*Elset, elset=_PickedSet426, internal, instance=B-9-3, generate
  1,  98,   1
*Elset, elset=_PickedSet426, internal, instance=B-18-2, generate
  1,  98,   1
*Elset, elset=_PickedSet426, internal, instance=B-6-1, generate
  1,  98,   1
*Elset, elset=_PickedSet426, internal, instance=B-21-8, generate
  1,  98,   1
*Elset, elset=_PickedSet426, internal, instance=B-5-4, generate
  1,  98,   1
*Elset, elset=_PickedSet426, internal, instance=B-13-7, generate
  1,  98,   1
*Elset, elset=_PickedSet426, internal, instance=B-9-1, generate
  1,  56,   1
*Elset, elset=_PickedSet426, internal, instance=B-17-5, generate
  1,  98,   1
*Elset, elset=_PickedSet426, internal, instance=B-1-7, generate
  1,  98,   1
*Elset, elset=_PickedSet426, internal, instance=B-1-5, generate
  1,  98,   1
*Elset, elset=_PickedSet426, internal, instance=B-2-4, generate
  1,  98,   1
*Elset, elset=_PickedSet426, internal, instance=B-3-9, generate
  1,  98,   1
*Elset, elset=_PickedSet426, internal, instance=B-8-6, generate
  1,  98,   1
*Elset, elset=_PickedSet426, internal, instance=B-15-1, generate
  1,  56,   1
*Elset, elset=_PickedSet426, internal, instance=B-4-3, generate
  1,  98,   1
*Elset, elset=_PickedSet426, internal, instance=B-11-4, generate
  1,  98,   1
*Elset, elset=_PickedSet426, internal, instance=B-19-7, generate
  1,  98,   1
*Elset, elset=_PickedSet426, internal, instance=B-16-8, generate
  1,  98,   1
*Elset, elset=_PickedSet426, internal, instance=B-19-6, generate
  1,  98,   1
*Elset, elset=_PickedSet426, internal, instance=B-8-7, generate
  1,  98,   1
*Elset, elset=_PickedSet426, internal, instance=B-15-3, generate
  1,  98,   1
*Elset, elset=_PickedSet426, internal, instance=B-3-2, generate
  1,  98,   1
*Elset, elset=_PickedSet426, internal, instance=B-12-1, generate
  1,  98,   1
*Elset, elset=_PickedSet426, internal, instance=B-7-10, generate
  1,  56,   1
*Elset, elset=_PickedSet426, internal, instance=B-19-9, generate
  1,  98,   1
*Elset, elset=_PickedSet426, internal, instance=B-3-6, generate
  1,  98,   1
*Elset, elset=_PickedSet426, internal, instance=B-12-9, generate
  1,  98,   1
*Elset, elset=_PickedSet426, internal, instance=B-20-3, generate
  1,  98,   1
*Elset, elset=_PickedSet426, internal, instance=B-8-2, generate
  1,  98,   1
*Elset, elset=_PickedSet426, internal, instance=B-16-5, generate
  1,  98,   1
*Elset, elset=_PickedSet426, internal, instance=B-11-8, generate
  1,  98,   1
*Elset, elset=_PickedSet426, internal, instance=B-16-4, generate
  1,  98,   1
*Elset, elset=_PickedSet426, internal, instance=B-3-7, generate
  1,  98,   1
*Elset, elset=_PickedSet426, internal, instance=B-19-2, generate
  1,  98,   1
*Elset, elset=_PickedSet426, internal, instance=B-7-5, generate
  1,  98,   1
*Elset, elset=_PickedSet426, internal, instance=B-1-1, generate
  1,  56,   1
*Elset, elset=_PickedSet426, internal, instance=B-2-8, generate
  1,  98,   1
*Elset, elset=_PickedSet426, internal, instance=B-11-9, generate
  1,  98,   1
*Elset, elset=_PickedSet426, internal, instance=B-16-6, generate
  1,  98,   1
*Elset, elset=_PickedSet426, internal, instance=B-4-9, generate
  1,  98,   1
*Elset, elset=_PickedSet426, internal, instance=B-12-3, generate
  1,  98,   1
*Elset, elset=_PickedSet426, internal, instance=B-19-4, generate
  1,  98,   1
*Elset, elset=_PickedSet426, internal, instance=B-8-5, generate
  1,  98,   1
*Elset, elset=_PickedSet426, internal, instance=B-3-8, generate
  1,  98,   1
*Elset, elset=_PickedSet426, internal, instance=B-8-4, generate
  1,  98,   1
*Elset, elset=_PickedSet426, internal, instance=B-16-7, generate
  1,  98,   1
*Elset, elset=_PickedSet426, internal, instance=B-11-2, generate
  1,  98,   1
*Elset, elset=_PickedSet426, internal, instance=B-20-1, generate
  1,  98,   1
*Elset, elset=_PickedSet426, internal, instance=B-15-10, generate
  1,  56,   1
*Elset, elset=_PickedSet426, internal, instance=B-8-8, generate
  1,  98,   1
*Elset, elset=_PickedSet426, internal, instance=B-11-6, generate
  1,  98,   1
*Elset, elset=_PickedSet426, internal, instance=B-20-9, generate
  1,  98,   1
*Elset, elset=_PickedSet426, internal, instance=B-7-3, generate
  1,  98,   1
*Elset, elset=_PickedSet426, internal, instance=B-16-2, generate
  1,  98,   1
*Elset, elset=_PickedSet426, internal, instance=B-4-1, generate
  1,  98,   1
*Elset, elset=_PickedSet426, internal, instance=B-19-8, generate
  1,  98,   1
*Elset, elset=_PickedSet426, internal, instance=B-3-4, generate
  1,  98,   1
*Elset, elset=_PickedSet426, internal, instance=B-11-7, generate
  1,  98,   1
*Elset, elset=_PickedSet426, internal, instance=B-7-1, generate
  1,  56,   1
*Elset, elset=_PickedSet426, internal, instance=B-15-5, generate
  1,  98,   1
*Elset, elset=_PickedSet426, internal, instance=B-1-3, generate
  1,  98,   1
*Elset, elset=_PickedSet426, internal, instance=B-2-6, generate
  1,  98,   1
*Elset, elset=_PickedSet426, internal, instance=B-7-9, generate
  1,  98,   1
*Elset, elset=_PickedSet426, internal, instance=B-12-6, generate
  1,  98,   1
*Elset, elset=_PickedSet426, internal, instance=B-19-1, generate
  1,  56,   1
*Elset, elset=_PickedSet426, internal, instance=B-8-3, generate
  1,  98,   1
*Elset, elset=_PickedSet426, internal, instance=B-15-4, generate
  1,  98,   1
*Elset, elset=_PickedSet426, internal, instance=B-4-5, generate
  1,  98,   1
*Elset, elset=_PickedSet426, internal, instance=B-20-8, generate
  1,  98,   1
*Elset, elset=_PickedSet426, internal, instance=B-4-4, generate
  1,  98,   1
*Elset, elset=_PickedSet426, internal, instance=B-12-7, generate
  1,  98,   1
*Elset, elset=_PickedSet426, internal, instance=B-19-3, generate
  1,  98,   1
*Elset, elset=_PickedSet426, internal, instance=B-7-2, generate
  1,  98,   1
*Elset, elset=_PickedSet426, internal, instance=B-16-1, generate
  1,  98,   1
*Elset, elset=_PickedSet426, internal, instance=B-11-10, generate
  1,  56,   1
*Elset, elset=_PickedSet426, internal, instance=B-4-8, generate
  1,  98,   1
*Elset, elset=_PickedSet426, internal, instance=B-7-6, generate
  1,  98,   1
*Elset, elset=_PickedSet426, internal, instance=B-16-9, generate
  1,  98,   1
*Elset, elset=_PickedSet426, internal, instance=B-3-3, generate
  1,  98,   1
*Elset, elset=_PickedSet426, internal, instance=B-12-2, generate
  1,  98,   1
*Elset, elset=_PickedSet426, internal, instance=B-20-5, generate
  1,  98,   1
*Elset, elset=_PickedSet426, internal, instance=B-15-8, generate
  1,  98,   1
*Elset, elset=_PickedSet426, internal, instance=B-20-4, generate
  1,  98,   1
*Elset, elset=_PickedSet426, internal, instance=B-7-7, generate
  1,  98,   1
*Elset, elset=_PickedSet426, internal, instance=B-3-1, generate
  1,  56,   1
*Elset, elset=_PickedSet426, internal, instance=B-11-5, generate
  1,  98,   1
*Elset, elset=_PickedSet426, internal, instance=B-2-2, generate
  1,  98,   1
*Elset, elset=_PickedSet426, internal, instance=B-3-10, generate
  1,  56,   1
*Elset, elset=_PickedSet426, internal, instance=B-15-9, generate
  1,  98,   1
*Elset, elset=_PickedSet426, internal, instance=B-20-6, generate
  1,  98,   1
*Elset, elset=_PickedSet426, internal, instance=B-8-9, generate
  1,  98,   1
*Elset, elset=_PickedSet426, internal, instance=B-16-3, generate
  1,  98,   1
*Elset, elset=_PickedSet426, internal, instance=B-4-2, generate
  1,  98,   1
*Elset, elset=_PickedSet426, internal, instance=B-12-5, generate
  1,  98,   1
*Elset, elset=_PickedSet426, internal, instance=B-7-8, generate
  1,  98,   1
*Elset, elset=_PickedSet426, internal, instance=B-12-4, generate
  1,  98,   1
*Elset, elset=_PickedSet426, internal, instance=B-20-7, generate
  1,  98,   1
*Elset, elset=_PickedSet426, internal, instance=B-15-2, generate
  1,  98,   1
*Elset, elset=_PickedSet426, internal, instance=B-3-5, generate
  1,  98,   1
*Elset, elset=_PickedSet426, internal, instance=B-19-10, generate
  1,  56,   1
*Elset, elset=_PickedSet426, internal, instance=B-12-8, generate
  1,  98,   1
*Elset, elset=_PickedSet426, internal, instance=B-15-6, generate
  1,  98,   1
*Elset, elset=_PickedSet426, internal, instance=B-4-7, generate
  1,  98,   1
*Elset, elset=_PickedSet426, internal, instance=B-11-3, generate
  1,  98,   1
*Elset, elset=_PickedSet426, internal, instance=B-20-2, generate
  1,  98,   1
*Elset, elset=_PickedSet426, internal, instance=B-8-1, generate
  1,  98,   1
*Elset, elset=_PickedSet426, internal, instance=B-4-6, generate
  1,  98,   1
*Elset, elset=_PickedSet426, internal, instance=B-7-4, generate
  1,  98,   1
*Elset, elset=_PickedSet426, internal, instance=B-15-7, generate
  1,  98,   1
*Elset, elset=_PickedSet426, internal, instance=B-11-1, generate
  1,  56,   1
*Elset, elset=_PickedSet426, internal, instance=B-19-5, generate
  1,  98,   1
*Nset, nset=_PickedSet481, internal
 1,
*Nset, nset=_PickedSet482, internal
 2,
*Nset, nset=_PickedSet483, internal
 3,
*Nset, nset=_PickedSet484, internal, generate
 1,  3,  1
*Nset, nset=_PickedSet485, internal
 3,
*Elset, elset=_Bottoms_S5, internal, instance=B-1-10
  8,  9, 10, 11, 12, 13, 14, 22, 23, 24, 25, 26, 27, 28, 36, 37
 38, 39, 40, 41, 42, 50, 51, 52, 53, 54, 55, 56
*Elset, elset=_Bottoms_S5, internal, instance=B-1-9
  8,  9, 10, 11, 12, 13, 14, 22, 23, 24, 25, 26, 27, 28, 36, 37
 38, 39, 40, 41, 42, 50, 51, 52, 53, 54, 55, 56, 64, 65, 66, 67
 68, 69, 70, 78, 79, 80, 81, 82, 83, 84, 92, 93, 94, 95, 96, 97
 98,
*Elset, elset=_Bottoms_S5, internal, instance=B-1-8
  8,  9, 10, 11, 12, 13, 14, 22, 23, 24, 25, 26, 27, 28, 36, 37
 38, 39, 40, 41, 42, 50, 51, 52, 53, 54, 55, 56, 64, 65, 66, 67
 68, 69, 70, 78, 79, 80, 81, 82, 83, 84, 92, 93, 94, 95, 96, 97
 98,
*Elset, elset=_Bottoms_S5, internal, instance=B-1-6
  8,  9, 10, 11, 12, 13, 14, 22, 23, 24, 25, 26, 27, 28, 36, 37
 38, 39, 40, 41, 42, 50, 51, 52, 53, 54, 55, 56, 64, 65, 66, 67
 68, 69, 70, 78, 79, 80, 81, 82, 83, 84, 92, 93, 94, 95, 96, 97
 98,
*Elset, elset=_Bottoms_S5, internal, instance=B-2-3
  8,  9, 10, 11, 12, 13, 14, 22, 23, 24, 25, 26, 27, 28, 36, 37
 38, 39, 40, 41, 42, 50, 51, 52, 53, 54, 55, 56, 64, 65, 66, 67
 68, 69, 70, 78, 79, 80, 81, 82, 83, 84, 92, 93, 94, 95, 96, 97
 98,
*Elset, elset=_Bottoms_S5, internal, instance=B-21-10
  8,  9, 10, 11, 12, 13, 14, 22, 23, 24, 25, 26, 27, 28, 36, 37
 38, 39, 40, 41, 42, 50, 51, 52, 53, 54, 55, 56
*Elset, elset=_Bottoms_S5, internal, instance=B-6-6
  8,  9, 10, 11, 12, 13, 14, 22, 23, 24, 25, 26, 27, 28, 36, 37
 38, 39, 40, 41, 42, 50, 51, 52, 53, 54, 55, 56, 64, 65, 66, 67
 68, 69, 70, 78, 79, 80, 81, 82, 83, 84, 92, 93, 94, 95, 96, 97
 98,
*Elset, elset=_Bottoms_S5, internal, instance=B-13-1
  8,  9, 10, 11, 12, 13, 14, 22, 23, 24, 25, 26, 27, 28, 36, 37
 38, 39, 40, 41, 42, 50, 51, 52, 53, 54, 55, 56
*Elset, elset=_Bottoms_S5, internal, instance=B-21-5
  8,  9, 10, 11, 12, 13, 14, 22, 23, 24, 25, 26, 27, 28, 36, 37
 38, 39, 40, 41, 42, 50, 51, 52, 53, 54, 55, 56, 64, 65, 66, 67
 68, 69, 70, 78, 79, 80, 81, 82, 83, 84, 92, 93, 94, 95, 96, 97
 98,
*Elset, elset=_Bottoms_S5, internal, instance=B-9-4
  8,  9, 10, 11, 12, 13, 14, 22, 23, 24, 25, 26, 27, 28, 36, 37
 38, 39, 40, 41, 42, 50, 51, 52, 53, 54, 55, 56, 64, 65, 66, 67
 68, 69, 70, 78, 79, 80, 81, 82, 83, 84, 92, 93, 94, 95, 96, 97
 98,
*Elset, elset=_Bottoms_S5, internal, instance=B-17-7
  8,  9, 10, 11, 12, 13, 14, 22, 23, 24, 25, 26, 27, 28, 36, 37
 38, 39, 40, 41, 42, 50, 51, 52, 53, 54, 55, 56, 64, 65, 66, 67
 68, 69, 70, 78, 79, 80, 81, 82, 83, 84, 92, 93, 94, 95, 96, 97
 98,
*Elset, elset=_Bottoms_S5, internal, instance=B-14-8
  8,  9, 10, 11, 12, 13, 14, 22, 23, 24, 25, 26, 27, 28, 36, 37
 38, 39, 40, 41, 42, 50, 51, 52, 53, 54, 55, 56, 64, 65, 66, 67
 68, 69, 70, 78, 79, 80, 81, 82, 83, 84, 92, 93, 94, 95, 96, 97
 98,
*Elset, elset=_Bottoms_S5, internal, instance=B-17-6
  8,  9, 10, 11, 12, 13, 14, 22, 23, 24, 25, 26, 27, 28, 36, 37
 38, 39, 40, 41, 42, 50, 51, 52, 53, 54, 55, 56, 64, 65, 66, 67
 68, 69, 70, 78, 79, 80, 81, 82, 83, 84, 92, 93, 94, 95, 96, 97
 98,
*Elset, elset=_Bottoms_S5, internal, instance=B-6-7
  8,  9, 10, 11, 12, 13, 14, 22, 23, 24, 25, 26, 27, 28, 36, 37
 38, 39, 40, 41, 42, 50, 51, 52, 53, 54, 55, 56, 64, 65, 66, 67
 68, 69, 70, 78, 79, 80, 81, 82, 83, 84, 92, 93, 94, 95, 96, 97
 98,
*Elset, elset=_Bottoms_S5, internal, instance=B-13-3
  8,  9, 10, 11, 12, 13, 14, 22, 23, 24, 25, 26, 27, 28, 36, 37
 38, 39, 40, 41, 42, 50, 51, 52, 53, 54, 55, 56, 64, 65, 66, 67
 68, 69, 70, 78, 79, 80, 81, 82, 83, 84, 92, 93, 94, 95, 96, 97
 98,
*Elset, elset=_Bottoms_S5, internal, instance=B-22-2
  8,  9, 10, 11, 12, 13, 14, 22, 23, 24, 25, 26, 27, 28, 36, 37
 38, 39, 40, 41, 42, 50, 51, 52, 53, 54, 55, 56, 64, 65, 66, 67
 68, 69, 70, 78, 79, 80, 81, 82, 83, 84, 92, 93, 94, 95, 96, 97
 98,
*Elset, elset=_Bottoms_S5, internal, instance=B-10-1
  8,  9, 10, 11, 12, 13, 14, 22, 23, 24, 25, 26, 27, 28, 36, 37
 38, 39, 40, 41, 42, 50, 51, 52, 53, 54, 55, 56, 64, 65, 66, 67
 68, 69, 70, 78, 79, 80, 81, 82, 83, 84, 92, 93, 94, 95, 96, 97
 98,
*Elset, elset=_Bottoms_S5, internal, instance=B-5-10
  8,  9, 10, 11, 12, 13, 14, 22, 23, 24, 25, 26, 27, 28, 36, 37
 38, 39, 40, 41, 42, 50, 51, 52, 53, 54, 55, 56
*Elset, elset=_Bottoms_S5, internal, instance=B-17-9
  8,  9, 10, 11, 12, 13, 14, 22, 23, 24, 25, 26, 27, 28, 36, 37
 38, 39, 40, 41, 42, 50, 51, 52, 53, 54, 55, 56, 64, 65, 66, 67
 68, 69, 70, 78, 79, 80, 81, 82, 83, 84, 92, 93, 94, 95, 96, 97
 98,
*Elset, elset=_Bottoms_S5, internal, instance=B-22-6
  8,  9, 10, 11, 12, 13, 14, 22, 23, 24, 25, 26, 27, 28, 36, 37
 38, 39, 40, 41, 42, 50, 51, 52, 53, 54, 55, 56, 64, 65, 66, 67
 68, 69, 70, 78, 79, 80, 81, 82, 83, 84, 92, 93, 94, 95, 96, 97
 98,
*Elset, elset=_Bottoms_S5, internal, instance=B-10-9
  8,  9, 10, 11, 12, 13, 14, 22, 23, 24, 25, 26, 27, 28, 36, 37
 38, 39, 40, 41, 42, 50, 51, 52, 53, 54, 55, 56, 64, 65, 66, 67
 68, 69, 70, 78, 79, 80, 81, 82, 83, 84, 92, 93, 94, 95, 96, 97
 98,
*Elset, elset=_Bottoms_S5, internal, instance=B-18-3
  8,  9, 10, 11, 12, 13, 14, 22, 23, 24, 25, 26, 27, 28, 36, 37
 38, 39, 40, 41, 42, 50, 51, 52, 53, 54, 55, 56, 64, 65, 66, 67
 68, 69, 70, 78, 79, 80, 81, 82, 83, 84, 92, 93, 94, 95, 96, 97
 98,
*Elset, elset=_Bottoms_S5, internal, instance=B-6-2
  8,  9, 10, 11, 12, 13, 14, 22, 23, 24, 25, 26, 27, 28, 36, 37
 38, 39, 40, 41, 42, 50, 51, 52, 53, 54, 55, 56, 64, 65, 66, 67
 68, 69, 70, 78, 79, 80, 81, 82, 83, 84, 92, 93, 94, 95, 96, 97
 98,
*Elset, elset=_Bottoms_S5, internal, instance=B-14-5
  8,  9, 10, 11, 12, 13, 14, 22, 23, 24, 25, 26, 27, 28, 36, 37
 38, 39, 40, 41, 42, 50, 51, 52, 53, 54, 55, 56, 64, 65, 66, 67
 68, 69, 70, 78, 79, 80, 81, 82, 83, 84, 92, 93, 94, 95, 96, 97
 98,
*Elset, elset=_Bottoms_S5, internal, instance=B-9-8
  8,  9, 10, 11, 12, 13, 14, 22, 23, 24, 25, 26, 27, 28, 36, 37
 38, 39, 40, 41, 42, 50, 51, 52, 53, 54, 55, 56, 64, 65, 66, 67
 68, 69, 70, 78, 79, 80, 81, 82, 83, 84, 92, 93, 94, 95, 96, 97
 98,
*Elset, elset=_Bottoms_S5, internal, instance=B-14-4
  8,  9, 10, 11, 12, 13, 14, 22, 23, 24, 25, 26, 27, 28, 36, 37
 38, 39, 40, 41, 42, 50, 51, 52, 53, 54, 55, 56, 64, 65, 66, 67
 68, 69, 70, 78, 79, 80, 81, 82, 83, 84, 92, 93, 94, 95, 96, 97
 98,
*Elset, elset=_Bottoms_S5, internal, instance=B-22-7
  8,  9, 10, 11, 12, 13, 14, 22, 23, 24, 25, 26, 27, 28, 36, 37
 38, 39, 40, 41, 42, 50, 51, 52, 53, 54, 55, 56, 64, 65, 66, 67
 68, 69, 70, 78, 79, 80, 81, 82, 83, 84, 92, 93, 94, 95, 96, 97
 98,
*Elset, elset=_Bottoms_S5, internal, instance=B-17-2
  8,  9, 10, 11, 12, 13, 14, 22, 23, 24, 25, 26, 27, 28, 36, 37
 38, 39, 40, 41, 42, 50, 51, 52, 53, 54, 55, 56, 64, 65, 66, 67
 68, 69, 70, 78, 79, 80, 81, 82, 83, 84, 92, 93, 94, 95, 96, 97
 98,
*Elset, elset=_Bottoms_S5, internal, instance=B-5-5
  8,  9, 10, 11, 12, 13, 14, 22, 23, 24, 25, 26, 27, 28, 36, 37
 38, 39, 40, 41, 42, 50, 51, 52, 53, 54, 55, 56, 64, 65, 66, 67
 68, 69, 70, 78, 79, 80, 81, 82, 83, 84, 92, 93, 94, 95, 96, 97
 98,
*Elset, elset=_Bottoms_S5, internal, instance=B-1-2
  8,  9, 10, 11, 12, 13, 14, 22, 23, 24, 25, 26, 27, 28, 36, 37
 38, 39, 40, 41, 42, 50, 51, 52, 53, 54, 55, 56, 64, 65, 66, 67
 68, 69, 70, 78, 79, 80, 81, 82, 83, 84, 92, 93, 94, 95, 96, 97
 98,
*Elset, elset=_Bottoms_S5, internal, instance=B-2-7
  8,  9, 10, 11, 12, 13, 14, 22, 23, 24, 25, 26, 27, 28, 36, 37
 38, 39, 40, 41, 42, 50, 51, 52, 53, 54, 55, 56, 64, 65, 66, 67
 68, 69, 70, 78, 79, 80, 81, 82, 83, 84, 92, 93, 94, 95, 96, 97
 98,
*Elset, elset=_Bottoms_S5, internal, instance=B-9-9
  8,  9, 10, 11, 12, 13, 14, 22, 23, 24, 25, 26, 27, 28, 36, 37
 38, 39, 40, 41, 42, 50, 51, 52, 53, 54, 55, 56, 64, 65, 66, 67
 68, 69, 70, 78, 79, 80, 81, 82, 83, 84, 92, 93, 94, 95, 96, 97
 98,
*Elset, elset=_Bottoms_S5, internal, instance=B-14-6
  8,  9, 10, 11, 12, 13, 14, 22, 23, 24, 25, 26, 27, 28, 36, 37
 38, 39, 40, 41, 42, 50, 51, 52, 53, 54, 55, 56, 64, 65, 66, 67
 68, 69, 70, 78, 79, 80, 81, 82, 83, 84, 92, 93, 94, 95, 96, 97
 98,
*Elset, elset=_Bottoms_S5, internal, instance=B-21-1
  8,  9, 10, 11, 12, 13, 14, 22, 23, 24, 25, 26, 27, 28, 36, 37
 38, 39, 40, 41, 42, 50, 51, 52, 53, 54, 55, 56
*Elset, elset=_Bottoms_S5, internal, instance=B-10-3
  8,  9, 10, 11, 12, 13, 14, 22, 23, 24, 25, 26, 27, 28, 36, 37
 38, 39, 40, 41, 42, 50, 51, 52, 53, 54, 55, 56, 64, 65, 66, 67
 68, 69, 70, 78, 79, 80, 81, 82, 83, 84, 92, 93, 94, 95, 96, 97
 98,
*Elset, elset=_Bottoms_S5, internal, instance=B-17-4
  8,  9, 10, 11, 12, 13, 14, 22, 23, 24, 25, 26, 27, 28, 36, 37
 38, 39, 40, 41, 42, 50, 51, 52, 53, 54, 55, 56, 64, 65, 66, 67
 68, 69, 70, 78, 79, 80, 81, 82, 83, 84, 92, 93, 94, 95, 96, 97
 98,
*Elset, elset=_Bottoms_S5, internal, instance=B-6-5
  8,  9, 10, 11, 12, 13, 14, 22, 23, 24, 25, 26, 27, 28, 36, 37
 38, 39, 40, 41, 42, 50, 51, 52, 53, 54, 55, 56, 64, 65, 66, 67
 68, 69, 70, 78, 79, 80, 81, 82, 83, 84, 92, 93, 94, 95, 96, 97
 98,
*Elset, elset=_Bottoms_S5, internal, instance=B-22-8
  8,  9, 10, 11, 12, 13, 14, 22, 23, 24, 25, 26, 27, 28, 36, 37
 38, 39, 40, 41, 42, 50, 51, 52, 53, 54, 55, 56, 64, 65, 66, 67
 68, 69, 70, 78, 79, 80, 81, 82, 83, 84, 92, 93, 94, 95, 96, 97
 98,
*Elset, elset=_Bottoms_S5, internal, instance=B-6-4
  8,  9, 10, 11, 12, 13, 14, 22, 23, 24, 25, 26, 27, 28, 36, 37
 38, 39, 40, 41, 42, 50, 51, 52, 53, 54, 55, 56, 64, 65, 66, 67
 68, 69, 70, 78, 79, 80, 81, 82, 83, 84, 92, 93, 94, 95, 96, 97
 98,
*Elset, elset=_Bottoms_S5, internal, instance=B-14-7
  8,  9, 10, 11, 12, 13, 14, 22, 23, 24, 25, 26, 27, 28, 36, 37
 38, 39, 40, 41, 42, 50, 51, 52, 53, 54, 55, 56, 64, 65, 66, 67
 68, 69, 70, 78, 79, 80, 81, 82, 83, 84, 92, 93, 94, 95, 96, 97
 98,
*Elset, elset=_Bottoms_S5, internal, instance=B-21-3
  8,  9, 10, 11, 12, 13, 14, 22, 23, 24, 25, 26, 27, 28, 36, 37
 38, 39, 40, 41, 42, 50, 51, 52, 53, 54, 55, 56, 64, 65, 66, 67
 68, 69, 70, 78, 79, 80, 81, 82, 83, 84, 92, 93, 94, 95, 96, 97
 98,
*Elset, elset=_Bottoms_S5, internal, instance=B-9-2
  8,  9, 10, 11, 12, 13, 14, 22, 23, 24, 25, 26, 27, 28, 36, 37
 38, 39, 40, 41, 42, 50, 51, 52, 53, 54, 55, 56, 64, 65, 66, 67
 68, 69, 70, 78, 79, 80, 81, 82, 83, 84, 92, 93, 94, 95, 96, 97
 98,
*Elset, elset=_Bottoms_S5, internal, instance=B-18-1
  8,  9, 10, 11, 12, 13, 14, 22, 23, 24, 25, 26, 27, 28, 36, 37
 38, 39, 40, 41, 42, 50, 51, 52, 53, 54, 55, 56, 64, 65, 66, 67
 68, 69, 70, 78, 79, 80, 81, 82, 83, 84, 92, 93, 94, 95, 96, 97
 98,
*Elset, elset=_Bottoms_S5, internal, instance=B-13-10
  8,  9, 10, 11, 12, 13, 14, 22, 23, 24, 25, 26, 27, 28, 36, 37
 38, 39, 40, 41, 42, 50, 51, 52, 53, 54, 55, 56
*Elset, elset=_Bottoms_S5, internal, instance=B-6-8
  8,  9, 10, 11, 12, 13, 14, 22, 23, 24, 25, 26, 27, 28, 36, 37
 38, 39, 40, 41, 42, 50, 51, 52, 53, 54, 55, 56, 64, 65, 66, 67
 68, 69, 70, 78, 79, 80, 81, 82, 83, 84, 92, 93, 94, 95, 96, 97
 98,
*Elset, elset=_Bottoms_S5, internal, instance=B-9-6
  8,  9, 10, 11, 12, 13, 14, 22, 23, 24, 25, 26, 27, 28, 36, 37
 38, 39, 40, 41, 42, 50, 51, 52, 53, 54, 55, 56, 64, 65, 66, 67
 68, 69, 70, 78, 79, 80, 81, 82, 83, 84, 92, 93, 94, 95, 96, 97
 98,
*Elset, elset=_Bottoms_S5, internal, instance=B-18-9
  8,  9, 10, 11, 12, 13, 14, 22, 23, 24, 25, 26, 27, 28, 36, 37
 38, 39, 40, 41, 42, 50, 51, 52, 53, 54, 55, 56, 64, 65, 66, 67
 68, 69, 70, 78, 79, 80, 81, 82, 83, 84, 92, 93, 94, 95, 96, 97
 98,
*Elset, elset=_Bottoms_S5, internal, instance=B-5-3
  8,  9, 10, 11, 12, 13, 14, 22, 23, 24, 25, 26, 27, 28, 36, 37
 38, 39, 40, 41, 42, 50, 51, 52, 53, 54, 55, 56, 64, 65, 66, 67
 68, 69, 70, 78, 79, 80, 81, 82, 83, 84, 92, 93, 94, 95, 96, 97
 98,
*Elset, elset=_Bottoms_S5, internal, instance=B-14-2
  8,  9, 10, 11, 12, 13, 14, 22, 23, 24, 25, 26, 27, 28, 36, 37
 38, 39, 40, 41, 42, 50, 51, 52, 53, 54, 55, 56, 64, 65, 66, 67
 68, 69, 70, 78, 79, 80, 81, 82, 83, 84, 92, 93, 94, 95, 96, 97
 98,
*Elset, elset=_Bottoms_S5, internal, instance=B-22-5
  8,  9, 10, 11, 12, 13, 14, 22, 23, 24, 25, 26, 27, 28, 36, 37
 38, 39, 40, 41, 42, 50, 51, 52, 53, 54, 55, 56, 64, 65, 66, 67
 68, 69, 70, 78, 79, 80, 81, 82, 83, 84, 92, 93, 94, 95, 96, 97
 98,
*Elset, elset=_Bottoms_S5, internal, instance=B-17-8
  8,  9, 10, 11, 12, 13, 14, 22, 23, 24, 25, 26, 27, 28, 36, 37
 38, 39, 40, 41, 42, 50, 51, 52, 53, 54, 55, 56, 64, 65, 66, 67
 68, 69, 70, 78, 79, 80, 81, 82, 83, 84, 92, 93, 94, 95, 96, 97
 98,
*Elset, elset=_Bottoms_S5, internal, instance=B-22-4
  8,  9, 10, 11, 12, 13, 14, 22, 23, 24, 25, 26, 27, 28, 36, 37
 38, 39, 40, 41, 42, 50, 51, 52, 53, 54, 55, 56, 64, 65, 66, 67
 68, 69, 70, 78, 79, 80, 81, 82, 83, 84, 92, 93, 94, 95, 96, 97
 98,
*Elset, elset=_Bottoms_S5, internal, instance=B-9-7
  8,  9, 10, 11, 12, 13, 14, 22, 23, 24, 25, 26, 27, 28, 36, 37
 38, 39, 40, 41, 42, 50, 51, 52, 53, 54, 55, 56, 64, 65, 66, 67
 68, 69, 70, 78, 79, 80, 81, 82, 83, 84, 92, 93, 94, 95, 96, 97
 98,
*Elset, elset=_Bottoms_S5, internal, instance=B-5-1
  8,  9, 10, 11, 12, 13, 14, 22, 23, 24, 25, 26, 27, 28, 36, 37
 38, 39, 40, 41, 42, 50, 51, 52, 53, 54, 55, 56
*Elset, elset=_Bottoms_S5, internal, instance=B-13-5
  8,  9, 10, 11, 12, 13, 14, 22, 23, 24, 25, 26, 27, 28, 36, 37
 38, 39, 40, 41, 42, 50, 51, 52, 53, 54, 55, 56, 64, 65, 66, 67
 68, 69, 70, 78, 79, 80, 81, 82, 83, 84, 92, 93, 94, 95, 96, 97
 98,
*Elset, elset=_Bottoms_S5, internal, instance=B-1-4
  8,  9, 10, 11, 12, 13, 14, 22, 23, 24, 25, 26, 27, 28, 36, 37
 38, 39, 40, 41, 42, 50, 51, 52, 53, 54, 55, 56, 64, 65, 66, 67
 68, 69, 70, 78, 79, 80, 81, 82, 83, 84, 92, 93, 94, 95, 96, 97
 98,
*Elset, elset=_Bottoms_S5, internal, instance=B-2-5
  8,  9, 10, 11, 12, 13, 14, 22, 23, 24, 25, 26, 27, 28, 36, 37
 38, 39, 40, 41, 42, 50, 51, 52, 53, 54, 55, 56, 64, 65, 66, 67
 68, 69, 70, 78, 79, 80, 81, 82, 83, 84, 92, 93, 94, 95, 96, 97
 98,
*Elset, elset=_Bottoms_S5, internal, instance=B-5-9
  8,  9, 10, 11, 12, 13, 14, 22, 23, 24, 25, 26, 27, 28, 36, 37
 38, 39, 40, 41, 42, 50, 51, 52, 53, 54, 55, 56, 64, 65, 66, 67
 68, 69, 70, 78, 79, 80, 81, 82, 83, 84, 92, 93, 94, 95, 96, 97
 98,
*Elset, elset=_Bottoms_S5, internal, instance=B-10-6
  8,  9, 10, 11, 12, 13, 14, 22, 23, 24, 25, 26, 27, 28, 36, 37
 38, 39, 40, 41, 42, 50, 51, 52, 53, 54, 55, 56, 64, 65, 66, 67
 68, 69, 70, 78, 79, 80, 81, 82, 83, 84, 92, 93, 94, 95, 96, 97
 98,
*Elset, elset=_Bottoms_S5, internal, instance=B-17-1
  8,  9, 10, 11, 12, 13, 14, 22, 23, 24, 25, 26, 27, 28, 36, 37
 38, 39, 40, 41, 42, 50, 51, 52, 53, 54, 55, 56
*Elset, elset=_Bottoms_S5, internal, instance=B-6-3
  8,  9, 10, 11, 12, 13, 14, 22, 23, 24, 25, 26, 27, 28, 36, 37
 38, 39, 40, 41, 42, 50, 51, 52, 53, 54, 55, 56, 64, 65, 66, 67
 68, 69, 70, 78, 79, 80, 81, 82, 83, 84, 92, 93, 94, 95, 96, 97
 98,
*Elset, elset=_Bottoms_S5, internal, instance=B-13-4
  8,  9, 10, 11, 12, 13, 14, 22, 23, 24, 25, 26, 27, 28, 36, 37
 38, 39, 40, 41, 42, 50, 51, 52, 53, 54, 55, 56, 64, 65, 66, 67
 68, 69, 70, 78, 79, 80, 81, 82, 83, 84, 92, 93, 94, 95, 96, 97
 98,
*Elset, elset=_Bottoms_S5, internal, instance=B-21-7
  8,  9, 10, 11, 12, 13, 14, 22, 23, 24, 25, 26, 27, 28, 36, 37
 38, 39, 40, 41, 42, 50, 51, 52, 53, 54, 55, 56, 64, 65, 66, 67
 68, 69, 70, 78, 79, 80, 81, 82, 83, 84, 92, 93, 94, 95, 96, 97
 98,
*Elset, elset=_Bottoms_S5, internal, instance=B-18-8
  8,  9, 10, 11, 12, 13, 14, 22, 23, 24, 25, 26, 27, 28, 36, 37
 38, 39, 40, 41, 42, 50, 51, 52, 53, 54, 55, 56, 64, 65, 66, 67
 68, 69, 70, 78, 79, 80, 81, 82, 83, 84, 92, 93, 94, 95, 96, 97
 98,
*Elset, elset=_Bottoms_S5, internal, instance=B-21-6
  8,  9, 10, 11, 12, 13, 14, 22, 23, 24, 25, 26, 27, 28, 36, 37
 38, 39, 40, 41, 42, 50, 51, 52, 53, 54, 55, 56, 64, 65, 66, 67
 68, 69, 70, 78, 79, 80, 81, 82, 83, 84, 92, 93, 94, 95, 96, 97
 98,
*Elset, elset=_Bottoms_S5, internal, instance=B-10-7
  8,  9, 10, 11, 12, 13, 14, 22, 23, 24, 25, 26, 27, 28, 36, 37
 38, 39, 40, 41, 42, 50, 51, 52, 53, 54, 55, 56, 64, 65, 66, 67
 68, 69, 70, 78, 79, 80, 81, 82, 83, 84, 92, 93, 94, 95, 96, 97
 98,
*Elset, elset=_Bottoms_S5, internal, instance=B-17-3
  8,  9, 10, 11, 12, 13, 14, 22, 23, 24, 25, 26, 27, 28, 36, 37
 38, 39, 40, 41, 42, 50, 51, 52, 53, 54, 55, 56, 64, 65, 66, 67
 68, 69, 70, 78, 79, 80, 81, 82, 83, 84, 92, 93, 94, 95, 96, 97
 98,
*Elset, elset=_Bottoms_S5, internal, instance=B-5-2
  8,  9, 10, 11, 12, 13, 14, 22, 23, 24, 25, 26, 27, 28, 36, 37
 38, 39, 40, 41, 42, 50, 51, 52, 53, 54, 55, 56, 64, 65, 66, 67
 68, 69, 70, 78, 79, 80, 81, 82, 83, 84, 92, 93, 94, 95, 96, 97
 98,
*Elset, elset=_Bottoms_S5, internal, instance=B-14-1
  8,  9, 10, 11, 12, 13, 14, 22, 23, 24, 25, 26, 27, 28, 36, 37
 38, 39, 40, 41, 42, 50, 51, 52, 53, 54, 55, 56, 64, 65, 66, 67
 68, 69, 70, 78, 79, 80, 81, 82, 83, 84, 92, 93, 94, 95, 96, 97
 98,
*Elset, elset=_Bottoms_S5, internal, instance=B-9-10
  8,  9, 10, 11, 12, 13, 14, 22, 23, 24, 25, 26, 27, 28, 36, 37
 38, 39, 40, 41, 42, 50, 51, 52, 53, 54, 55, 56
*Elset, elset=_Bottoms_S5, internal, instance=B-21-9
  8,  9, 10, 11, 12, 13, 14, 22, 23, 24, 25, 26, 27, 28, 36, 37
 38, 39, 40, 41, 42, 50, 51, 52, 53, 54, 55, 56, 64, 65, 66, 67
 68, 69, 70, 78, 79, 80, 81, 82, 83, 84, 92, 93, 94, 95, 96, 97
 98,
*Elset, elset=_Bottoms_S5, internal, instance=B-5-6
  8,  9, 10, 11, 12, 13, 14, 22, 23, 24, 25, 26, 27, 28, 36, 37
 38, 39, 40, 41, 42, 50, 51, 52, 53, 54, 55, 56, 64, 65, 66, 67
 68, 69, 70, 78, 79, 80, 81, 82, 83, 84, 92, 93, 94, 95, 96, 97
 98,
*Elset, elset=_Bottoms_S5, internal, instance=B-14-9
  8,  9, 10, 11, 12, 13, 14, 22, 23, 24, 25, 26, 27, 28, 36, 37
 38, 39, 40, 41, 42, 50, 51, 52, 53, 54, 55, 56, 64, 65, 66, 67
 68, 69, 70, 78, 79, 80, 81, 82, 83, 84, 92, 93, 94, 95, 96, 97
 98,
*Elset, elset=_Bottoms_S5, internal, instance=B-22-3
  8,  9, 10, 11, 12, 13, 14, 22, 23, 24, 25, 26, 27, 28, 36, 37
 38, 39, 40, 41, 42, 50, 51, 52, 53, 54, 55, 56, 64, 65, 66, 67
 68, 69, 70, 78, 79, 80, 81, 82, 83, 84, 92, 93, 94, 95, 96, 97
 98,
*Elset, elset=_Bottoms_S5, internal, instance=B-10-2
  8,  9, 10, 11, 12, 13, 14, 22, 23, 24, 25, 26, 27, 28, 36, 37
 38, 39, 40, 41, 42, 50, 51, 52, 53, 54, 55, 56, 64, 65, 66, 67
 68, 69, 70, 78, 79, 80, 81, 82, 83, 84, 92, 93, 94, 95, 96, 97
 98,
*Elset, elset=_Bottoms_S5, internal, instance=B-18-5
  8,  9, 10, 11, 12, 13, 14, 22, 23, 24, 25, 26, 27, 28, 36, 37
 38, 39, 40, 41, 42, 50, 51, 52, 53, 54, 55, 56, 64, 65, 66, 67
 68, 69, 70, 78, 79, 80, 81, 82, 83, 84, 92, 93, 94, 95, 96, 97
 98,
*Elset, elset=_Bottoms_S5, internal, instance=B-13-8
  8,  9, 10, 11, 12, 13, 14, 22, 23, 24, 25, 26, 27, 28, 36, 37
 38, 39, 40, 41, 42, 50, 51, 52, 53, 54, 55, 56, 64, 65, 66, 67
 68, 69, 70, 78, 79, 80, 81, 82, 83, 84, 92, 93, 94, 95, 96, 97
 98,
*Elset, elset=_Bottoms_S5, internal, instance=B-18-4
  8,  9, 10, 11, 12, 13, 14, 22, 23, 24, 25, 26, 27, 28, 36, 37
 38, 39, 40, 41, 42, 50, 51, 52, 53, 54, 55, 56, 64, 65, 66, 67
 68, 69, 70, 78, 79, 80, 81, 82, 83, 84, 92, 93, 94, 95, 96, 97
 98,
*Elset, elset=_Bottoms_S5, internal, instance=B-5-7
  8,  9, 10, 11, 12, 13, 14, 22, 23, 24, 25, 26, 27, 28, 36, 37
 38, 39, 40, 41, 42, 50, 51, 52, 53, 54, 55, 56, 64, 65, 66, 67
 68, 69, 70, 78, 79, 80, 81, 82, 83, 84, 92, 93, 94, 95, 96, 97
 98,
*Elset, elset=_Bottoms_S5, internal, instance=B-21-2
  8,  9, 10, 11, 12, 13, 14, 22, 23, 24, 25, 26, 27, 28, 36, 37
 38, 39, 40, 41, 42, 50, 51, 52, 53, 54, 55, 56, 64, 65, 66, 67
 68, 69, 70, 78, 79, 80, 81, 82, 83, 84, 92, 93, 94, 95, 96, 97
 98,
*Elset, elset=_Bottoms_S5, internal, instance=B-9-5
  8,  9, 10, 11, 12, 13, 14, 22, 23, 24, 25, 26, 27, 28, 36, 37
 38, 39, 40, 41, 42, 50, 51, 52, 53, 54, 55, 56, 64, 65, 66, 67
 68, 69, 70, 78, 79, 80, 81, 82, 83, 84, 92, 93, 94, 95, 96, 97
 98,
*Elset, elset=_Bottoms_S5, internal, instance=B-2-1
  8,  9, 10, 11, 12, 13, 14, 22, 23, 24, 25, 26, 27, 28, 36, 37
 38, 39, 40, 41, 42, 50, 51, 52, 53, 54, 55, 56, 64, 65, 66, 67
 68, 69, 70, 78, 79, 80, 81, 82, 83, 84, 92, 93, 94, 95, 96, 97
 98,
*Elset, elset=_Bottoms_S5, internal, instance=B-2-9
  8,  9, 10, 11, 12, 13, 14, 22, 23, 24, 25, 26, 27, 28, 36, 37
 38, 39, 40, 41, 42, 50, 51, 52, 53, 54, 55, 56, 64, 65, 66, 67
 68, 69, 70, 78, 79, 80, 81, 82, 83, 84, 92, 93, 94, 95, 96, 97
 98,
*Elset, elset=_Bottoms_S5, internal, instance=B-13-9
  8,  9, 10, 11, 12, 13, 14, 22, 23, 24, 25, 26, 27, 28, 36, 37
 38, 39, 40, 41, 42, 50, 51, 52, 53, 54, 55, 56, 64, 65, 66, 67
 68, 69, 70, 78, 79, 80, 81, 82, 83, 84, 92, 93, 94, 95, 96, 97
 98,
*Elset, elset=_Bottoms_S5, internal, instance=B-18-6
  8,  9, 10, 11, 12, 13, 14, 22, 23, 24, 25, 26, 27, 28, 36, 37
 38, 39, 40, 41, 42, 50, 51, 52, 53, 54, 55, 56, 64, 65, 66, 67
 68, 69, 70, 78, 79, 80, 81, 82, 83, 84, 92, 93, 94, 95, 96, 97
 98,
*Elset, elset=_Bottoms_S5, internal, instance=B-6-9
  8,  9, 10, 11, 12, 13, 14, 22, 23, 24, 25, 26, 27, 28, 36, 37
 38, 39, 40, 41, 42, 50, 51, 52, 53, 54, 55, 56, 64, 65, 66, 67
 68, 69, 70, 78, 79, 80, 81, 82, 83, 84, 92, 93, 94, 95, 96, 97
 98,
*Elset, elset=_Bottoms_S5, internal, instance=B-14-3
  8,  9, 10, 11, 12, 13, 14, 22, 23, 24, 25, 26, 27, 28, 36, 37
 38, 39, 40, 41, 42, 50, 51, 52, 53, 54, 55, 56, 64, 65, 66, 67
 68, 69, 70, 78, 79, 80, 81, 82, 83, 84, 92, 93, 94, 95, 96, 97
 98,
*Elset, elset=_Bottoms_S5, internal, instance=B-21-4
  8,  9, 10, 11, 12, 13, 14, 22, 23, 24, 25, 26, 27, 28, 36, 37
 38, 39, 40, 41, 42, 50, 51, 52, 53, 54, 55, 56, 64, 65, 66, 67
 68, 69, 70, 78, 79, 80, 81, 82, 83, 84, 92, 93, 94, 95, 96, 97
 98,
*Elset, elset=_Bottoms_S5, internal, instance=B-10-5
  8,  9, 10, 11, 12, 13, 14, 22, 23, 24, 25, 26, 27, 28, 36, 37
 38, 39, 40, 41, 42, 50, 51, 52, 53, 54, 55, 56, 64, 65, 66, 67
 68, 69, 70, 78, 79, 80, 81, 82, 83, 84, 92, 93, 94, 95, 96, 97
 98,
*Elset, elset=_Bottoms_S5, internal, instance=B-5-8
  8,  9, 10, 11, 12, 13, 14, 22, 23, 24, 25, 26, 27, 28, 36, 37
 38, 39, 40, 41, 42, 50, 51, 52, 53, 54, 55, 56, 64, 65, 66, 67
 68, 69, 70, 78, 79, 80, 81, 82, 83, 84, 92, 93, 94, 95, 96, 97
 98,
*Elset, elset=_Bottoms_S5, internal, instance=B-10-4
  8,  9, 10, 11, 12, 13, 14, 22, 23, 24, 25, 26, 27, 28, 36, 37
 38, 39, 40, 41, 42, 50, 51, 52, 53, 54, 55, 56, 64, 65, 66, 67
 68, 69, 70, 78, 79, 80, 81, 82, 83, 84, 92, 93, 94, 95, 96, 97
 98,
*Elset, elset=_Bottoms_S5, internal, instance=B-18-7
  8,  9, 10, 11, 12, 13, 14, 22, 23, 24, 25, 26, 27, 28, 36, 37
 38, 39, 40, 41, 42, 50, 51, 52, 53, 54, 55, 56, 64, 65, 66, 67
 68, 69, 70, 78, 79, 80, 81, 82, 83, 84, 92, 93, 94, 95, 96, 97
 98,
*Elset, elset=_Bottoms_S5, internal, instance=B-13-2
  8,  9, 10, 11, 12, 13, 14, 22, 23, 24, 25, 26, 27, 28, 36, 37
 38, 39, 40, 41, 42, 50, 51, 52, 53, 54, 55, 56, 64, 65, 66, 67
 68, 69, 70, 78, 79, 80, 81, 82, 83, 84, 92, 93, 94, 95, 96, 97
 98,
*Elset, elset=_Bottoms_S5, internal, instance=B-22-1
  8,  9, 10, 11, 12, 13, 14, 22, 23, 24, 25, 26, 27, 28, 36, 37
 38, 39, 40, 41, 42, 50, 51, 52, 53, 54, 55, 56, 64, 65, 66, 67
 68, 69, 70, 78, 79, 80, 81, 82, 83, 84, 92, 93, 94, 95, 96, 97
 98,
*Elset, elset=_Bottoms_S5, internal, instance=B-17-10
  8,  9, 10, 11, 12, 13, 14, 22, 23, 24, 25, 26, 27, 28, 36, 37
 38, 39, 40, 41, 42, 50, 51, 52, 53, 54, 55, 56
*Elset, elset=_Bottoms_S5, internal, instance=B-10-8
  8,  9, 10, 11, 12, 13, 14, 22, 23, 24, 25, 26, 27, 28, 36, 37
 38, 39, 40, 41, 42, 50, 51, 52, 53, 54, 55, 56, 64, 65, 66, 67
 68, 69, 70, 78, 79, 80, 81, 82, 83, 84, 92, 93, 94, 95, 96, 97
 98,
*Elset, elset=_Bottoms_S5, internal, instance=B-13-6
  8,  9, 10, 11, 12, 13, 14, 22, 23, 24, 25, 26, 27, 28, 36, 37
 38, 39, 40, 41, 42, 50, 51, 52, 53, 54, 55, 56, 64, 65, 66, 67
 68, 69, 70, 78, 79, 80, 81, 82, 83, 84, 92, 93, 94, 95, 96, 97
 98,
*Elset, elset=_Bottoms_S5, internal, instance=B-22-9
  8,  9, 10, 11, 12, 13, 14, 22, 23, 24, 25, 26, 27, 28, 36, 37
 38, 39, 40, 41, 42, 50, 51, 52, 53, 54, 55, 56, 64, 65, 66, 67
 68, 69, 70, 78, 79, 80, 81, 82, 83, 84, 92, 93, 94, 95, 96, 97
 98,
*Elset, elset=_Bottoms_S5, internal, instance=B-9-3
  8,  9, 10, 11, 12, 13, 14, 22, 23, 24, 25, 26, 27, 28, 36, 37
 38, 39, 40, 41, 42, 50, 51, 52, 53, 54, 55, 56, 64, 65, 66, 67
 68, 69, 70, 78, 79, 80, 81, 82, 83, 84, 92, 93, 94, 95, 96, 97
 98,
*Elset, elset=_Bottoms_S5, internal, instance=B-18-2
  8,  9, 10, 11, 12, 13, 14, 22, 23, 24, 25, 26, 27, 28, 36, 37
 38, 39, 40, 41, 42, 50, 51, 52, 53, 54, 55, 56, 64, 65, 66, 67
 68, 69, 70, 78, 79, 80, 81, 82, 83, 84, 92, 93, 94, 95, 96, 97
 98,
*Elset, elset=_Bottoms_S5, internal, instance=B-6-1
  8,  9, 10, 11, 12, 13, 14, 22, 23, 24, 25, 26, 27, 28, 36, 37
 38, 39, 40, 41, 42, 50, 51, 52, 53, 54, 55, 56, 64, 65, 66, 67
 68, 69, 70, 78, 79, 80, 81, 82, 83, 84, 92, 93, 94, 95, 96, 97
 98,
*Elset, elset=_Bottoms_S5, internal, instance=B-21-8
  8,  9, 10, 11, 12, 13, 14, 22, 23, 24, 25, 26, 27, 28, 36, 37
 38, 39, 40, 41, 42, 50, 51, 52, 53, 54, 55, 56, 64, 65, 66, 67
 68, 69, 70, 78, 79, 80, 81, 82, 83, 84, 92, 93, 94, 95, 96, 97
 98,
*Elset, elset=_Bottoms_S5, internal, instance=B-5-4
  8,  9, 10, 11, 12, 13, 14, 22, 23, 24, 25, 26, 27, 28, 36, 37
 38, 39, 40, 41, 42, 50, 51, 52, 53, 54, 55, 56, 64, 65, 66, 67
 68, 69, 70, 78, 79, 80, 81, 82, 83, 84, 92, 93, 94, 95, 96, 97
 98,
*Elset, elset=_Bottoms_S5, internal, instance=B-13-7
  8,  9, 10, 11, 12, 13, 14, 22, 23, 24, 25, 26, 27, 28, 36, 37
 38, 39, 40, 41, 42, 50, 51, 52, 53, 54, 55, 56, 64, 65, 66, 67
 68, 69, 70, 78, 79, 80, 81, 82, 83, 84, 92, 93, 94, 95, 96, 97
 98,
*Elset, elset=_Bottoms_S5, internal, instance=B-9-1
  8,  9, 10, 11, 12, 13, 14, 22, 23, 24, 25, 26, 27, 28, 36, 37
 38, 39, 40, 41, 42, 50, 51, 52, 53, 54, 55, 56
*Elset, elset=_Bottoms_S5, internal, instance=B-17-5
  8,  9, 10, 11, 12, 13, 14, 22, 23, 24, 25, 26, 27, 28, 36, 37
 38, 39, 40, 41, 42, 50, 51, 52, 53, 54, 55, 56, 64, 65, 66, 67
 68, 69, 70, 78, 79, 80, 81, 82, 83, 84, 92, 93, 94, 95, 96, 97
 98,
*Elset, elset=_Bottoms_S5, internal, instance=B-1-7
  8,  9, 10, 11, 12, 13, 14, 22, 23, 24, 25, 26, 27, 28, 36, 37
 38, 39, 40, 41, 42, 50, 51, 52, 53, 54, 55, 56, 64, 65, 66, 67
 68, 69, 70, 78, 79, 80, 81, 82, 83, 84, 92, 93, 94, 95, 96, 97
 98,
*Elset, elset=_Bottoms_S5, internal, instance=B-1-5
  8,  9, 10, 11, 12, 13, 14, 22, 23, 24, 25, 26, 27, 28, 36, 37
 38, 39, 40, 41, 42, 50, 51, 52, 53, 54, 55, 56, 64, 65, 66, 67
 68, 69, 70, 78, 79, 80, 81, 82, 83, 84, 92, 93, 94, 95, 96, 97
 98,
*Elset, elset=_Bottoms_S5, internal, instance=B-2-4
  8,  9, 10, 11, 12, 13, 14, 22, 23, 24, 25, 26, 27, 28, 36, 37
 38, 39, 40, 41, 42, 50, 51, 52, 53, 54, 55, 56, 64, 65, 66, 67
 68, 69, 70, 78, 79, 80, 81, 82, 83, 84, 92, 93, 94, 95, 96, 97
 98,
*Elset, elset=_Bottoms_S5, internal, instance=B-3-9
  8,  9, 10, 11, 12, 13, 14, 22, 23, 24, 25, 26, 27, 28, 36, 37
 38, 39, 40, 41, 42, 50, 51, 52, 53, 54, 55, 56, 64, 65, 66, 67
 68, 69, 70, 78, 79, 80, 81, 82, 83, 84, 92, 93, 94, 95, 96, 97
 98,
*Elset, elset=_Bottoms_S5, internal, instance=B-8-6
  8,  9, 10, 11, 12, 13, 14, 22, 23, 24, 25, 26, 27, 28, 36, 37
 38, 39, 40, 41, 42, 50, 51, 52, 53, 54, 55, 56, 64, 65, 66, 67
 68, 69, 70, 78, 79, 80, 81, 82, 83, 84, 92, 93, 94, 95, 96, 97
 98,
*Elset, elset=_Bottoms_S5, internal, instance=B-15-1
  8,  9, 10, 11, 12, 13, 14, 22, 23, 24, 25, 26, 27, 28, 36, 37
 38, 39, 40, 41, 42, 50, 51, 52, 53, 54, 55, 56
*Elset, elset=_Bottoms_S5, internal, instance=B-4-3
  8,  9, 10, 11, 12, 13, 14, 22, 23, 24, 25, 26, 27, 28, 36, 37
 38, 39, 40, 41, 42, 50, 51, 52, 53, 54, 55, 56, 64, 65, 66, 67
 68, 69, 70, 78, 79, 80, 81, 82, 83, 84, 92, 93, 94, 95, 96, 97
 98,
*Elset, elset=_Bottoms_S5, internal, instance=B-11-4
  8,  9, 10, 11, 12, 13, 14, 22, 23, 24, 25, 26, 27, 28, 36, 37
 38, 39, 40, 41, 42, 50, 51, 52, 53, 54, 55, 56, 64, 65, 66, 67
 68, 69, 70, 78, 79, 80, 81, 82, 83, 84, 92, 93, 94, 95, 96, 97
 98,
*Elset, elset=_Bottoms_S5, internal, instance=B-19-7
  8,  9, 10, 11, 12, 13, 14, 22, 23, 24, 25, 26, 27, 28, 36, 37
 38, 39, 40, 41, 42, 50, 51, 52, 53, 54, 55, 56, 64, 65, 66, 67
 68, 69, 70, 78, 79, 80, 81, 82, 83, 84, 92, 93, 94, 95, 96, 97
 98,
*Elset, elset=_Bottoms_S5, internal, instance=B-16-8
  8,  9, 10, 11, 12, 13, 14, 22, 23, 24, 25, 26, 27, 28, 36, 37
 38, 39, 40, 41, 42, 50, 51, 52, 53, 54, 55, 56, 64, 65, 66, 67
 68, 69, 70, 78, 79, 80, 81, 82, 83, 84, 92, 93, 94, 95, 96, 97
 98,
*Elset, elset=_Bottoms_S5, internal, instance=B-19-6
  8,  9, 10, 11, 12, 13, 14, 22, 23, 24, 25, 26, 27, 28, 36, 37
 38, 39, 40, 41, 42, 50, 51, 52, 53, 54, 55, 56, 64, 65, 66, 67
 68, 69, 70, 78, 79, 80, 81, 82, 83, 84, 92, 93, 94, 95, 96, 97
 98,
*Elset, elset=_Bottoms_S5, internal, instance=B-8-7
  8,  9, 10, 11, 12, 13, 14, 22, 23, 24, 25, 26, 27, 28, 36, 37
 38, 39, 40, 41, 42, 50, 51, 52, 53, 54, 55, 56, 64, 65, 66, 67
 68, 69, 70, 78, 79, 80, 81, 82, 83, 84, 92, 93, 94, 95, 96, 97
 98,
*Elset, elset=_Bottoms_S5, internal, instance=B-15-3
  8,  9, 10, 11, 12, 13, 14, 22, 23, 24, 25, 26, 27, 28, 36, 37
 38, 39, 40, 41, 42, 50, 51, 52, 53, 54, 55, 56, 64, 65, 66, 67
 68, 69, 70, 78, 79, 80, 81, 82, 83, 84, 92, 93, 94, 95, 96, 97
 98,
*Elset, elset=_Bottoms_S5, internal, instance=B-3-2
  8,  9, 10, 11, 12, 13, 14, 22, 23, 24, 25, 26, 27, 28, 36, 37
 38, 39, 40, 41, 42, 50, 51, 52, 53, 54, 55, 56, 64, 65, 66, 67
 68, 69, 70, 78, 79, 80, 81, 82, 83, 84, 92, 93, 94, 95, 96, 97
 98,
*Elset, elset=_Bottoms_S5, internal, instance=B-12-1
  8,  9, 10, 11, 12, 13, 14, 22, 23, 24, 25, 26, 27, 28, 36, 37
 38, 39, 40, 41, 42, 50, 51, 52, 53, 54, 55, 56, 64, 65, 66, 67
 68, 69, 70, 78, 79, 80, 81, 82, 83, 84, 92, 93, 94, 95, 96, 97
 98,
*Elset, elset=_Bottoms_S5, internal, instance=B-7-10
  8,  9, 10, 11, 12, 13, 14, 22, 23, 24, 25, 26, 27, 28, 36, 37
 38, 39, 40, 41, 42, 50, 51, 52, 53, 54, 55, 56
*Elset, elset=_Bottoms_S5, internal, instance=B-19-9
  8,  9, 10, 11, 12, 13, 14, 22, 23, 24, 25, 26, 27, 28, 36, 37
 38, 39, 40, 41, 42, 50, 51, 52, 53, 54, 55, 56, 64, 65, 66, 67
 68, 69, 70, 78, 79, 80, 81, 82, 83, 84, 92, 93, 94, 95, 96, 97
 98,
*Elset, elset=_Bottoms_S5, internal, instance=B-3-6
  8,  9, 10, 11, 12, 13, 14, 22, 23, 24, 25, 26, 27, 28, 36, 37
 38, 39, 40, 41, 42, 50, 51, 52, 53, 54, 55, 56, 64, 65, 66, 67
 68, 69, 70, 78, 79, 80, 81, 82, 83, 84, 92, 93, 94, 95, 96, 97
 98,
*Elset, elset=_Bottoms_S5, internal, instance=B-12-9
  8,  9, 10, 11, 12, 13, 14, 22, 23, 24, 25, 26, 27, 28, 36, 37
 38, 39, 40, 41, 42, 50, 51, 52, 53, 54, 55, 56, 64, 65, 66, 67
 68, 69, 70, 78, 79, 80, 81, 82, 83, 84, 92, 93, 94, 95, 96, 97
 98,
*Elset, elset=_Bottoms_S5, internal, instance=B-20-3
  8,  9, 10, 11, 12, 13, 14, 22, 23, 24, 25, 26, 27, 28, 36, 37
 38, 39, 40, 41, 42, 50, 51, 52, 53, 54, 55, 56, 64, 65, 66, 67
 68, 69, 70, 78, 79, 80, 81, 82, 83, 84, 92, 93, 94, 95, 96, 97
 98,
*Elset, elset=_Bottoms_S5, internal, instance=B-8-2
  8,  9, 10, 11, 12, 13, 14, 22, 23, 24, 25, 26, 27, 28, 36, 37
 38, 39, 40, 41, 42, 50, 51, 52, 53, 54, 55, 56, 64, 65, 66, 67
 68, 69, 70, 78, 79, 80, 81, 82, 83, 84, 92, 93, 94, 95, 96, 97
 98,
*Elset, elset=_Bottoms_S5, internal, instance=B-16-5
  8,  9, 10, 11, 12, 13, 14, 22, 23, 24, 25, 26, 27, 28, 36, 37
 38, 39, 40, 41, 42, 50, 51, 52, 53, 54, 55, 56, 64, 65, 66, 67
 68, 69, 70, 78, 79, 80, 81, 82, 83, 84, 92, 93, 94, 95, 96, 97
 98,
*Elset, elset=_Bottoms_S5, internal, instance=B-11-8
  8,  9, 10, 11, 12, 13, 14, 22, 23, 24, 25, 26, 27, 28, 36, 37
 38, 39, 40, 41, 42, 50, 51, 52, 53, 54, 55, 56, 64, 65, 66, 67
 68, 69, 70, 78, 79, 80, 81, 82, 83, 84, 92, 93, 94, 95, 96, 97
 98,
*Elset, elset=_Bottoms_S5, internal, instance=B-16-4
  8,  9, 10, 11, 12, 13, 14, 22, 23, 24, 25, 26, 27, 28, 36, 37
 38, 39, 40, 41, 42, 50, 51, 52, 53, 54, 55, 56, 64, 65, 66, 67
 68, 69, 70, 78, 79, 80, 81, 82, 83, 84, 92, 93, 94, 95, 96, 97
 98,
*Elset, elset=_Bottoms_S5, internal, instance=B-3-7
  8,  9, 10, 11, 12, 13, 14, 22, 23, 24, 25, 26, 27, 28, 36, 37
 38, 39, 40, 41, 42, 50, 51, 52, 53, 54, 55, 56, 64, 65, 66, 67
 68, 69, 70, 78, 79, 80, 81, 82, 83, 84, 92, 93, 94, 95, 96, 97
 98,
*Elset, elset=_Bottoms_S5, internal, instance=B-19-2
  8,  9, 10, 11, 12, 13, 14, 22, 23, 24, 25, 26, 27, 28, 36, 37
 38, 39, 40, 41, 42, 50, 51, 52, 53, 54, 55, 56, 64, 65, 66, 67
 68, 69, 70, 78, 79, 80, 81, 82, 83, 84, 92, 93, 94, 95, 96, 97
 98,
*Elset, elset=_Bottoms_S5, internal, instance=B-7-5
  8,  9, 10, 11, 12, 13, 14, 22, 23, 24, 25, 26, 27, 28, 36, 37
 38, 39, 40, 41, 42, 50, 51, 52, 53, 54, 55, 56, 64, 65, 66, 67
 68, 69, 70, 78, 79, 80, 81, 82, 83, 84, 92, 93, 94, 95, 96, 97
 98,
*Elset, elset=_Bottoms_S5, internal, instance=B-1-1
  8,  9, 10, 11, 12, 13, 14, 22, 23, 24, 25, 26, 27, 28, 36, 37
 38, 39, 40, 41, 42, 50, 51, 52, 53, 54, 55, 56
*Elset, elset=_Bottoms_S5, internal, instance=B-2-8
  8,  9, 10, 11, 12, 13, 14, 22, 23, 24, 25, 26, 27, 28, 36, 37
 38, 39, 40, 41, 42, 50, 51, 52, 53, 54, 55, 56, 64, 65, 66, 67
 68, 69, 70, 78, 79, 80, 81, 82, 83, 84, 92, 93, 94, 95, 96, 97
 98,
*Elset, elset=_Bottoms_S5, internal, instance=B-11-9
  8,  9, 10, 11, 12, 13, 14, 22, 23, 24, 25, 26, 27, 28, 36, 37
 38, 39, 40, 41, 42, 50, 51, 52, 53, 54, 55, 56, 64, 65, 66, 67
 68, 69, 70, 78, 79, 80, 81, 82, 83, 84, 92, 93, 94, 95, 96, 97
 98,
*Elset, elset=_Bottoms_S5, internal, instance=B-16-6
  8,  9, 10, 11, 12, 13, 14, 22, 23, 24, 25, 26, 27, 28, 36, 37
 38, 39, 40, 41, 42, 50, 51, 52, 53, 54, 55, 56, 64, 65, 66, 67
 68, 69, 70, 78, 79, 80, 81, 82, 83, 84, 92, 93, 94, 95, 96, 97
 98,
*Elset, elset=_Bottoms_S5, internal, instance=B-4-9
  8,  9, 10, 11, 12, 13, 14, 22, 23, 24, 25, 26, 27, 28, 36, 37
 38, 39, 40, 41, 42, 50, 51, 52, 53, 54, 55, 56, 64, 65, 66, 67
 68, 69, 70, 78, 79, 80, 81, 82, 83, 84, 92, 93, 94, 95, 96, 97
 98,
*Elset, elset=_Bottoms_S5, internal, instance=B-12-3
  8,  9, 10, 11, 12, 13, 14, 22, 23, 24, 25, 26, 27, 28, 36, 37
 38, 39, 40, 41, 42, 50, 51, 52, 53, 54, 55, 56, 64, 65, 66, 67
 68, 69, 70, 78, 79, 80, 81, 82, 83, 84, 92, 93, 94, 95, 96, 97
 98,
*Elset, elset=_Bottoms_S5, internal, instance=B-19-4
  8,  9, 10, 11, 12, 13, 14, 22, 23, 24, 25, 26, 27, 28, 36, 37
 38, 39, 40, 41, 42, 50, 51, 52, 53, 54, 55, 56, 64, 65, 66, 67
 68, 69, 70, 78, 79, 80, 81, 82, 83, 84, 92, 93, 94, 95, 96, 97
 98,
*Elset, elset=_Bottoms_S5, internal, instance=B-8-5
  8,  9, 10, 11, 12, 13, 14, 22, 23, 24, 25, 26, 27, 28, 36, 37
 38, 39, 40, 41, 42, 50, 51, 52, 53, 54, 55, 56, 64, 65, 66, 67
 68, 69, 70, 78, 79, 80, 81, 82, 83, 84, 92, 93, 94, 95, 96, 97
 98,
*Elset, elset=_Bottoms_S5, internal, instance=B-3-8
  8,  9, 10, 11, 12, 13, 14, 22, 23, 24, 25, 26, 27, 28, 36, 37
 38, 39, 40, 41, 42, 50, 51, 52, 53, 54, 55, 56, 64, 65, 66, 67
 68, 69, 70, 78, 79, 80, 81, 82, 83, 84, 92, 93, 94, 95, 96, 97
 98,
*Elset, elset=_Bottoms_S5, internal, instance=B-8-4
  8,  9, 10, 11, 12, 13, 14, 22, 23, 24, 25, 26, 27, 28, 36, 37
 38, 39, 40, 41, 42, 50, 51, 52, 53, 54, 55, 56, 64, 65, 66, 67
 68, 69, 70, 78, 79, 80, 81, 82, 83, 84, 92, 93, 94, 95, 96, 97
 98,
*Elset, elset=_Bottoms_S5, internal, instance=B-16-7
  8,  9, 10, 11, 12, 13, 14, 22, 23, 24, 25, 26, 27, 28, 36, 37
 38, 39, 40, 41, 42, 50, 51, 52, 53, 54, 55, 56, 64, 65, 66, 67
 68, 69, 70, 78, 79, 80, 81, 82, 83, 84, 92, 93, 94, 95, 96, 97
 98,
*Elset, elset=_Bottoms_S5, internal, instance=B-11-2
  8,  9, 10, 11, 12, 13, 14, 22, 23, 24, 25, 26, 27, 28, 36, 37
 38, 39, 40, 41, 42, 50, 51, 52, 53, 54, 55, 56, 64, 65, 66, 67
 68, 69, 70, 78, 79, 80, 81, 82, 83, 84, 92, 93, 94, 95, 96, 97
 98,
*Elset, elset=_Bottoms_S5, internal, instance=B-20-1
  8,  9, 10, 11, 12, 13, 14, 22, 23, 24, 25, 26, 27, 28, 36, 37
 38, 39, 40, 41, 42, 50, 51, 52, 53, 54, 55, 56, 64, 65, 66, 67
 68, 69, 70, 78, 79, 80, 81, 82, 83, 84, 92, 93, 94, 95, 96, 97
 98,
*Elset, elset=_Bottoms_S5, internal, instance=B-15-10
  8,  9, 10, 11, 12, 13, 14, 22, 23, 24, 25, 26, 27, 28, 36, 37
 38, 39, 40, 41, 42, 50, 51, 52, 53, 54, 55, 56
*Elset, elset=_Bottoms_S5, internal, instance=B-8-8
  8,  9, 10, 11, 12, 13, 14, 22, 23, 24, 25, 26, 27, 28, 36, 37
 38, 39, 40, 41, 42, 50, 51, 52, 53, 54, 55, 56, 64, 65, 66, 67
 68, 69, 70, 78, 79, 80, 81, 82, 83, 84, 92, 93, 94, 95, 96, 97
 98,
*Elset, elset=_Bottoms_S5, internal, instance=B-11-6
  8,  9, 10, 11, 12, 13, 14, 22, 23, 24, 25, 26, 27, 28, 36, 37
 38, 39, 40, 41, 42, 50, 51, 52, 53, 54, 55, 56, 64, 65, 66, 67
 68, 69, 70, 78, 79, 80, 81, 82, 83, 84, 92, 93, 94, 95, 96, 97
 98,
*Elset, elset=_Bottoms_S5, internal, instance=B-20-9
  8,  9, 10, 11, 12, 13, 14, 22, 23, 24, 25, 26, 27, 28, 36, 37
 38, 39, 40, 41, 42, 50, 51, 52, 53, 54, 55, 56, 64, 65, 66, 67
 68, 69, 70, 78, 79, 80, 81, 82, 83, 84, 92, 93, 94, 95, 96, 97
 98,
*Elset, elset=_Bottoms_S5, internal, instance=B-7-3
  8,  9, 10, 11, 12, 13, 14, 22, 23, 24, 25, 26, 27, 28, 36, 37
 38, 39, 40, 41, 42, 50, 51, 52, 53, 54, 55, 56, 64, 65, 66, 67
 68, 69, 70, 78, 79, 80, 81, 82, 83, 84, 92, 93, 94, 95, 96, 97
 98,
*Elset, elset=_Bottoms_S5, internal, instance=B-16-2
  8,  9, 10, 11, 12, 13, 14, 22, 23, 24, 25, 26, 27, 28, 36, 37
 38, 39, 40, 41, 42, 50, 51, 52, 53, 54, 55, 56, 64, 65, 66, 67
 68, 69, 70, 78, 79, 80, 81, 82, 83, 84, 92, 93, 94, 95, 96, 97
 98,
*Elset, elset=_Bottoms_S5, internal, instance=B-4-1
  8,  9, 10, 11, 12, 13, 14, 22, 23, 24, 25, 26, 27, 28, 36, 37
 38, 39, 40, 41, 42, 50, 51, 52, 53, 54, 55, 56, 64, 65, 66, 67
 68, 69, 70, 78, 79, 80, 81, 82, 83, 84, 92, 93, 94, 95, 96, 97
 98,
*Elset, elset=_Bottoms_S5, internal, instance=B-19-8
  8,  9, 10, 11, 12, 13, 14, 22, 23, 24, 25, 26, 27, 28, 36, 37
 38, 39, 40, 41, 42, 50, 51, 52, 53, 54, 55, 56, 64, 65, 66, 67
 68, 69, 70, 78, 79, 80, 81, 82, 83, 84, 92, 93, 94, 95, 96, 97
 98,
*Elset, elset=_Bottoms_S5, internal, instance=B-3-4
  8,  9, 10, 11, 12, 13, 14, 22, 23, 24, 25, 26, 27, 28, 36, 37
 38, 39, 40, 41, 42, 50, 51, 52, 53, 54, 55, 56, 64, 65, 66, 67
 68, 69, 70, 78, 79, 80, 81, 82, 83, 84, 92, 93, 94, 95, 96, 97
 98,
*Elset, elset=_Bottoms_S5, internal, instance=B-11-7
  8,  9, 10, 11, 12, 13, 14, 22, 23, 24, 25, 26, 27, 28, 36, 37
 38, 39, 40, 41, 42, 50, 51, 52, 53, 54, 55, 56, 64, 65, 66, 67
 68, 69, 70, 78, 79, 80, 81, 82, 83, 84, 92, 93, 94, 95, 96, 97
 98,
*Elset, elset=_Bottoms_S5, internal, instance=B-7-1
  8,  9, 10, 11, 12, 13, 14, 22, 23, 24, 25, 26, 27, 28, 36, 37
 38, 39, 40, 41, 42, 50, 51, 52, 53, 54, 55, 56
*Elset, elset=_Bottoms_S5, internal, instance=B-15-5
  8,  9, 10, 11, 12, 13, 14, 22, 23, 24, 25, 26, 27, 28, 36, 37
 38, 39, 40, 41, 42, 50, 51, 52, 53, 54, 55, 56, 64, 65, 66, 67
 68, 69, 70, 78, 79, 80, 81, 82, 83, 84, 92, 93, 94, 95, 96, 97
 98,
*Elset, elset=_Bottoms_S5, internal, instance=B-1-3
  8,  9, 10, 11, 12, 13, 14, 22, 23, 24, 25, 26, 27, 28, 36, 37
 38, 39, 40, 41, 42, 50, 51, 52, 53, 54, 55, 56, 64, 65, 66, 67
 68, 69, 70, 78, 79, 80, 81, 82, 83, 84, 92, 93, 94, 95, 96, 97
 98,
*Elset, elset=_Bottoms_S5, internal, instance=B-2-6
  8,  9, 10, 11, 12, 13, 14, 22, 23, 24, 25, 26, 27, 28, 36, 37
 38, 39, 40, 41, 42, 50, 51, 52, 53, 54, 55, 56, 64, 65, 66, 67
 68, 69, 70, 78, 79, 80, 81, 82, 83, 84, 92, 93, 94, 95, 96, 97
 98,
*Elset, elset=_Bottoms_S5, internal, instance=B-7-9
  8,  9, 10, 11, 12, 13, 14, 22, 23, 24, 25, 26, 27, 28, 36, 37
 38, 39, 40, 41, 42, 50, 51, 52, 53, 54, 55, 56, 64, 65, 66, 67
 68, 69, 70, 78, 79, 80, 81, 82, 83, 84, 92, 93, 94, 95, 96, 97
 98,
*Elset, elset=_Bottoms_S5, internal, instance=B-12-6
  8,  9, 10, 11, 12, 13, 14, 22, 23, 24, 25, 26, 27, 28, 36, 37
 38, 39, 40, 41, 42, 50, 51, 52, 53, 54, 55, 56, 64, 65, 66, 67
 68, 69, 70, 78, 79, 80, 81, 82, 83, 84, 92, 93, 94, 95, 96, 97
 98,
*Elset, elset=_Bottoms_S5, internal, instance=B-19-1
  8,  9, 10, 11, 12, 13, 14, 22, 23, 24, 25, 26, 27, 28, 36, 37
 38, 39, 40, 41, 42, 50, 51, 52, 53, 54, 55, 56
*Elset, elset=_Bottoms_S5, internal, instance=B-8-3
  8,  9, 10, 11, 12, 13, 14, 22, 23, 24, 25, 26, 27, 28, 36, 37
 38, 39, 40, 41, 42, 50, 51, 52, 53, 54, 55, 56, 64, 65, 66, 67
 68, 69, 70, 78, 79, 80, 81, 82, 83, 84, 92, 93, 94, 95, 96, 97
 98,
*Elset, elset=_Bottoms_S5, internal, instance=B-15-4
  8,  9, 10, 11, 12, 13, 14, 22, 23, 24, 25, 26, 27, 28, 36, 37
 38, 39, 40, 41, 42, 50, 51, 52, 53, 54, 55, 56, 64, 65, 66, 67
 68, 69, 70, 78, 79, 80, 81, 82, 83, 84, 92, 93, 94, 95, 96, 97
 98,
*Elset, elset=_Bottoms_S5, internal, instance=B-4-5
  8,  9, 10, 11, 12, 13, 14, 22, 23, 24, 25, 26, 27, 28, 36, 37
 38, 39, 40, 41, 42, 50, 51, 52, 53, 54, 55, 56, 64, 65, 66, 67
 68, 69, 70, 78, 79, 80, 81, 82, 83, 84, 92, 93, 94, 95, 96, 97
 98,
*Elset, elset=_Bottoms_S5, internal, instance=B-20-8
  8,  9, 10, 11, 12, 13, 14, 22, 23, 24, 25, 26, 27, 28, 36, 37
 38, 39, 40, 41, 42, 50, 51, 52, 53, 54, 55, 56, 64, 65, 66, 67
 68, 69, 70, 78, 79, 80, 81, 82, 83, 84, 92, 93, 94, 95, 96, 97
 98,
*Elset, elset=_Bottoms_S5, internal, instance=B-4-4
  8,  9, 10, 11, 12, 13, 14, 22, 23, 24, 25, 26, 27, 28, 36, 37
 38, 39, 40, 41, 42, 50, 51, 52, 53, 54, 55, 56, 64, 65, 66, 67
 68, 69, 70, 78, 79, 80, 81, 82, 83, 84, 92, 93, 94, 95, 96, 97
 98,
*Elset, elset=_Bottoms_S5, internal, instance=B-12-7
  8,  9, 10, 11, 12, 13, 14, 22, 23, 24, 25, 26, 27, 28, 36, 37
 38, 39, 40, 41, 42, 50, 51, 52, 53, 54, 55, 56, 64, 65, 66, 67
 68, 69, 70, 78, 79, 80, 81, 82, 83, 84, 92, 93, 94, 95, 96, 97
 98,
*Elset, elset=_Bottoms_S5, internal, instance=B-19-3
  8,  9, 10, 11, 12, 13, 14, 22, 23, 24, 25, 26, 27, 28, 36, 37
 38, 39, 40, 41, 42, 50, 51, 52, 53, 54, 55, 56, 64, 65, 66, 67
 68, 69, 70, 78, 79, 80, 81, 82, 83, 84, 92, 93, 94, 95, 96, 97
 98,
*Elset, elset=_Bottoms_S5, internal, instance=B-7-2
  8,  9, 10, 11, 12, 13, 14, 22, 23, 24, 25, 26, 27, 28, 36, 37
 38, 39, 40, 41, 42, 50, 51, 52, 53, 54, 55, 56, 64, 65, 66, 67
 68, 69, 70, 78, 79, 80, 81, 82, 83, 84, 92, 93, 94, 95, 96, 97
 98,
*Elset, elset=_Bottoms_S5, internal, instance=B-16-1
  8,  9, 10, 11, 12, 13, 14, 22, 23, 24, 25, 26, 27, 28, 36, 37
 38, 39, 40, 41, 42, 50, 51, 52, 53, 54, 55, 56, 64, 65, 66, 67
 68, 69, 70, 78, 79, 80, 81, 82, 83, 84, 92, 93, 94, 95, 96, 97
 98,
*Elset, elset=_Bottoms_S5, internal, instance=B-11-10
  8,  9, 10, 11, 12, 13, 14, 22, 23, 24, 25, 26, 27, 28, 36, 37
 38, 39, 40, 41, 42, 50, 51, 52, 53, 54, 55, 56
*Elset, elset=_Bottoms_S5, internal, instance=B-4-8
  8,  9, 10, 11, 12, 13, 14, 22, 23, 24, 25, 26, 27, 28, 36, 37
 38, 39, 40, 41, 42, 50, 51, 52, 53, 54, 55, 56, 64, 65, 66, 67
 68, 69, 70, 78, 79, 80, 81, 82, 83, 84, 92, 93, 94, 95, 96, 97
 98,
*Elset, elset=_Bottoms_S5, internal, instance=B-7-6
  8,  9, 10, 11, 12, 13, 14, 22, 23, 24, 25, 26, 27, 28, 36, 37
 38, 39, 40, 41, 42, 50, 51, 52, 53, 54, 55, 56, 64, 65, 66, 67
 68, 69, 70, 78, 79, 80, 81, 82, 83, 84, 92, 93, 94, 95, 96, 97
 98,
*Elset, elset=_Bottoms_S5, internal, instance=B-16-9
  8,  9, 10, 11, 12, 13, 14, 22, 23, 24, 25, 26, 27, 28, 36, 37
 38, 39, 40, 41, 42, 50, 51, 52, 53, 54, 55, 56, 64, 65, 66, 67
 68, 69, 70, 78, 79, 80, 81, 82, 83, 84, 92, 93, 94, 95, 96, 97
 98,
*Elset, elset=_Bottoms_S5, internal, instance=B-3-3
  8,  9, 10, 11, 12, 13, 14, 22, 23, 24, 25, 26, 27, 28, 36, 37
 38, 39, 40, 41, 42, 50, 51, 52, 53, 54, 55, 56, 64, 65, 66, 67
 68, 69, 70, 78, 79, 80, 81, 82, 83, 84, 92, 93, 94, 95, 96, 97
 98,
*Elset, elset=_Bottoms_S5, internal, instance=B-12-2
  8,  9, 10, 11, 12, 13, 14, 22, 23, 24, 25, 26, 27, 28, 36, 37
 38, 39, 40, 41, 42, 50, 51, 52, 53, 54, 55, 56, 64, 65, 66, 67
 68, 69, 70, 78, 79, 80, 81, 82, 83, 84, 92, 93, 94, 95, 96, 97
 98,
*Elset, elset=_Bottoms_S5, internal, instance=B-20-5
  8,  9, 10, 11, 12, 13, 14, 22, 23, 24, 25, 26, 27, 28, 36, 37
 38, 39, 40, 41, 42, 50, 51, 52, 53, 54, 55, 56, 64, 65, 66, 67
 68, 69, 70, 78, 79, 80, 81, 82, 83, 84, 92, 93, 94, 95, 96, 97
 98,
*Elset, elset=_Bottoms_S5, internal, instance=B-15-8
  8,  9, 10, 11, 12, 13, 14, 22, 23, 24, 25, 26, 27, 28, 36, 37
 38, 39, 40, 41, 42, 50, 51, 52, 53, 54, 55, 56, 64, 65, 66, 67
 68, 69, 70, 78, 79, 80, 81, 82, 83, 84, 92, 93, 94, 95, 96, 97
 98,
*Elset, elset=_Bottoms_S5, internal, instance=B-20-4
  8,  9, 10, 11, 12, 13, 14, 22, 23, 24, 25, 26, 27, 28, 36, 37
 38, 39, 40, 41, 42, 50, 51, 52, 53, 54, 55, 56, 64, 65, 66, 67
 68, 69, 70, 78, 79, 80, 81, 82, 83, 84, 92, 93, 94, 95, 96, 97
 98,
*Elset, elset=_Bottoms_S5, internal, instance=B-7-7
  8,  9, 10, 11, 12, 13, 14, 22, 23, 24, 25, 26, 27, 28, 36, 37
 38, 39, 40, 41, 42, 50, 51, 52, 53, 54, 55, 56, 64, 65, 66, 67
 68, 69, 70, 78, 79, 80, 81, 82, 83, 84, 92, 93, 94, 95, 96, 97
 98,
*Elset, elset=_Bottoms_S5, internal, instance=B-3-1
  8,  9, 10, 11, 12, 13, 14, 22, 23, 24, 25, 26, 27, 28, 36, 37
 38, 39, 40, 41, 42, 50, 51, 52, 53, 54, 55, 56
*Elset, elset=_Bottoms_S5, internal, instance=B-11-5
  8,  9, 10, 11, 12, 13, 14, 22, 23, 24, 25, 26, 27, 28, 36, 37
 38, 39, 40, 41, 42, 50, 51, 52, 53, 54, 55, 56, 64, 65, 66, 67
 68, 69, 70, 78, 79, 80, 81, 82, 83, 84, 92, 93, 94, 95, 96, 97
 98,
*Elset, elset=_Bottoms_S5, internal, instance=B-2-2
  8,  9, 10, 11, 12, 13, 14, 22, 23, 24, 25, 26, 27, 28, 36, 37
 38, 39, 40, 41, 42, 50, 51, 52, 53, 54, 55, 56, 64, 65, 66, 67
 68, 69, 70, 78, 79, 80, 81, 82, 83, 84, 92, 93, 94, 95, 96, 97
 98,
*Elset, elset=_Bottoms_S5, internal, instance=B-3-10
  8,  9, 10, 11, 12, 13, 14, 22, 23, 24, 25, 26, 27, 28, 36, 37
 38, 39, 40, 41, 42, 50, 51, 52, 53, 54, 55, 56
*Elset, elset=_Bottoms_S5, internal, instance=B-15-9
  8,  9, 10, 11, 12, 13, 14, 22, 23, 24, 25, 26, 27, 28, 36, 37
 38, 39, 40, 41, 42, 50, 51, 52, 53, 54, 55, 56, 64, 65, 66, 67
 68, 69, 70, 78, 79, 80, 81, 82, 83, 84, 92, 93, 94, 95, 96, 97
 98,
*Elset, elset=_Bottoms_S5, internal, instance=B-20-6
  8,  9, 10, 11, 12, 13, 14, 22, 23, 24, 25, 26, 27, 28, 36, 37
 38, 39, 40, 41, 42, 50, 51, 52, 53, 54, 55, 56, 64, 65, 66, 67
 68, 69, 70, 78, 79, 80, 81, 82, 83, 84, 92, 93, 94, 95, 96, 97
 98,
*Elset, elset=_Bottoms_S5, internal, instance=B-8-9
  8,  9, 10, 11, 12, 13, 14, 22, 23, 24, 25, 26, 27, 28, 36, 37
 38, 39, 40, 41, 42, 50, 51, 52, 53, 54, 55, 56, 64, 65, 66, 67
 68, 69, 70, 78, 79, 80, 81, 82, 83, 84, 92, 93, 94, 95, 96, 97
 98,
*Elset, elset=_Bottoms_S5, internal, instance=B-16-3
  8,  9, 10, 11, 12, 13, 14, 22, 23, 24, 25, 26, 27, 28, 36, 37
 38, 39, 40, 41, 42, 50, 51, 52, 53, 54, 55, 56, 64, 65, 66, 67
 68, 69, 70, 78, 79, 80, 81, 82, 83, 84, 92, 93, 94, 95, 96, 97
 98,
*Elset, elset=_Bottoms_S5, internal, instance=B-4-2
  8,  9, 10, 11, 12, 13, 14, 22, 23, 24, 25, 26, 27, 28, 36, 37
 38, 39, 40, 41, 42, 50, 51, 52, 53, 54, 55, 56, 64, 65, 66, 67
 68, 69, 70, 78, 79, 80, 81, 82, 83, 84, 92, 93, 94, 95, 96, 97
 98,
*Elset, elset=_Bottoms_S5, internal, instance=B-12-5
  8,  9, 10, 11, 12, 13, 14, 22, 23, 24, 25, 26, 27, 28, 36, 37
 38, 39, 40, 41, 42, 50, 51, 52, 53, 54, 55, 56, 64, 65, 66, 67
 68, 69, 70, 78, 79, 80, 81, 82, 83, 84, 92, 93, 94, 95, 96, 97
 98,
*Elset, elset=_Bottoms_S5, internal, instance=B-7-8
  8,  9, 10, 11, 12, 13, 14, 22, 23, 24, 25, 26, 27, 28, 36, 37
 38, 39, 40, 41, 42, 50, 51, 52, 53, 54, 55, 56, 64, 65, 66, 67
 68, 69, 70, 78, 79, 80, 81, 82, 83, 84, 92, 93, 94, 95, 96, 97
 98,
*Elset, elset=_Bottoms_S5, internal, instance=B-12-4
  8,  9, 10, 11, 12, 13, 14, 22, 23, 24, 25, 26, 27, 28, 36, 37
 38, 39, 40, 41, 42, 50, 51, 52, 53, 54, 55, 56, 64, 65, 66, 67
 68, 69, 70, 78, 79, 80, 81, 82, 83, 84, 92, 93, 94, 95, 96, 97
 98,
*Elset, elset=_Bottoms_S5, internal, instance=B-20-7
  8,  9, 10, 11, 12, 13, 14, 22, 23, 24, 25, 26, 27, 28, 36, 37
 38, 39, 40, 41, 42, 50, 51, 52, 53, 54, 55, 56, 64, 65, 66, 67
 68, 69, 70, 78, 79, 80, 81, 82, 83, 84, 92, 93, 94, 95, 96, 97
 98,
*Elset, elset=_Bottoms_S5, internal, instance=B-15-2
  8,  9, 10, 11, 12, 13, 14, 22, 23, 24, 25, 26, 27, 28, 36, 37
 38, 39, 40, 41, 42, 50, 51, 52, 53, 54, 55, 56, 64, 65, 66, 67
 68, 69, 70, 78, 79, 80, 81, 82, 83, 84, 92, 93, 94, 95, 96, 97
 98,
*Elset, elset=_Bottoms_S5, internal, instance=B-3-5
  8,  9, 10, 11, 12, 13, 14, 22, 23, 24, 25, 26, 27, 28, 36, 37
 38, 39, 40, 41, 42, 50, 51, 52, 53, 54, 55, 56, 64, 65, 66, 67
 68, 69, 70, 78, 79, 80, 81, 82, 83, 84, 92, 93, 94, 95, 96, 97
 98,
*Elset, elset=_Bottoms_S5, internal, instance=B-19-10
  8,  9, 10, 11, 12, 13, 14, 22, 23, 24, 25, 26, 27, 28, 36, 37
 38, 39, 40, 41, 42, 50, 51, 52, 53, 54, 55, 56
*Elset, elset=_Bottoms_S5, internal, instance=B-12-8
  8,  9, 10, 11, 12, 13, 14, 22, 23, 24, 25, 26, 27, 28, 36, 37
 38, 39, 40, 41, 42, 50, 51, 52, 53, 54, 55, 56, 64, 65, 66, 67
 68, 69, 70, 78, 79, 80, 81, 82, 83, 84, 92, 93, 94, 95, 96, 97
 98,
*Elset, elset=_Bottoms_S5, internal, instance=B-15-6
  8,  9, 10, 11, 12, 13, 14, 22, 23, 24, 25, 26, 27, 28, 36, 37
 38, 39, 40, 41, 42, 50, 51, 52, 53, 54, 55, 56, 64, 65, 66, 67
 68, 69, 70, 78, 79, 80, 81, 82, 83, 84, 92, 93, 94, 95, 96, 97
 98,
*Elset, elset=_Bottoms_S5, internal, instance=B-4-7
  8,  9, 10, 11, 12, 13, 14, 22, 23, 24, 25, 26, 27, 28, 36, 37
 38, 39, 40, 41, 42, 50, 51, 52, 53, 54, 55, 56, 64, 65, 66, 67
 68, 69, 70, 78, 79, 80, 81, 82, 83, 84, 92, 93, 94, 95, 96, 97
 98,
*Elset, elset=_Bottoms_S5, internal, instance=B-11-3
  8,  9, 10, 11, 12, 13, 14, 22, 23, 24, 25, 26, 27, 28, 36, 37
 38, 39, 40, 41, 42, 50, 51, 52, 53, 54, 55, 56, 64, 65, 66, 67
 68, 69, 70, 78, 79, 80, 81, 82, 83, 84, 92, 93, 94, 95, 96, 97
 98,
*Elset, elset=_Bottoms_S5, internal, instance=B-20-2
  8,  9, 10, 11, 12, 13, 14, 22, 23, 24, 25, 26, 27, 28, 36, 37
 38, 39, 40, 41, 42, 50, 51, 52, 53, 54, 55, 56, 64, 65, 66, 67
 68, 69, 70, 78, 79, 80, 81, 82, 83, 84, 92, 93, 94, 95, 96, 97
 98,
*Elset, elset=_Bottoms_S5, internal, instance=B-8-1
  8,  9, 10, 11, 12, 13, 14, 22, 23, 24, 25, 26, 27, 28, 36, 37
 38, 39, 40, 41, 42, 50, 51, 52, 53, 54, 55, 56, 64, 65, 66, 67
 68, 69, 70, 78, 79, 80, 81, 82, 83, 84, 92, 93, 94, 95, 96, 97
 98,
*Elset, elset=_Bottoms_S5, internal, instance=B-4-6
  8,  9, 10, 11, 12, 13, 14, 22, 23, 24, 25, 26, 27, 28, 36, 37
 38, 39, 40, 41, 42, 50, 51, 52, 53, 54, 55, 56, 64, 65, 66, 67
 68, 69, 70, 78, 79, 80, 81, 82, 83, 84, 92, 93, 94, 95, 96, 97
 98,
*Elset, elset=_Bottoms_S5, internal, instance=B-7-4
  8,  9, 10, 11, 12, 13, 14, 22, 23, 24, 25, 26, 27, 28, 36, 37
 38, 39, 40, 41, 42, 50, 51, 52, 53, 54, 55, 56, 64, 65, 66, 67
 68, 69, 70, 78, 79, 80, 81, 82, 83, 84, 92, 93, 94, 95, 96, 97
 98,
*Elset, elset=_Bottoms_S5, internal, instance=B-15-7
  8,  9, 10, 11, 12, 13, 14, 22, 23, 24, 25, 26, 27, 28, 36, 37
 38, 39, 40, 41, 42, 50, 51, 52, 53, 54, 55, 56, 64, 65, 66, 67
 68, 69, 70, 78, 79, 80, 81, 82, 83, 84, 92, 93, 94, 95, 96, 97
 98,
*Elset, elset=_Bottoms_S5, internal, instance=B-11-1
  8,  9, 10, 11, 12, 13, 14, 22, 23, 24, 25, 26, 27, 28, 36, 37
 38, 39, 40, 41, 42, 50, 51, 52, 53, 54, 55, 56
*Elset, elset=_Bottoms_S5, internal, instance=B-19-5
  8,  9, 10, 11, 12, 13, 14, 22, 23, 24, 25, 26, 27, 28, 36, 37
 38, 39, 40, 41, 42, 50, 51, 52, 53, 54, 55, 56, 64, 65, 66, 67
 68, 69, 70, 78, 79, 80, 81, 82, 83, 84, 92, 93, 94, 95, 96, 97
 98,
*Surface, type=ELEMENT, name=Bottoms
_Bottoms_S5, S5
*Elset, elset=__PickedSurf456_S3, internal, instance=B-22-8
  1,  2,  3,  4,  5,  6,  7, 15, 16, 17, 18, 19, 20, 21, 29, 30
 31, 32, 33, 34, 35, 43, 44, 45, 46, 47, 48, 49, 57, 58, 59, 60
 61, 62, 63, 71, 72, 73, 74, 75, 76, 77, 85, 86, 87, 88, 89, 90
 91,
*Elset, elset=__PickedSurf456_S3, internal, instance=B-22-6
  1,  2,  3,  4,  5,  6,  7, 15, 16, 17, 18, 19, 20, 21, 29, 30
 31, 32, 33, 34, 35, 43, 44, 45, 46, 47, 48, 49, 57, 58, 59, 60
 61, 62, 63, 71, 72, 73, 74, 75, 76, 77, 85, 86, 87, 88, 89, 90
 91,
*Elset, elset=__PickedSurf456_S3, internal, instance=B-22-4
  1,  2,  3,  4,  5,  6,  7, 15, 16, 17, 18, 19, 20, 21, 29, 30
 31, 32, 33, 34, 35, 43, 44, 45, 46, 47, 48, 49, 57, 58, 59, 60
 61, 62, 63, 71, 72, 73, 74, 75, 76, 77, 85, 86, 87, 88, 89, 90
 91,
*Elset, elset=__PickedSurf456_S3, internal, instance=B-22-2
  1,  2,  3,  4,  5,  6,  7, 15, 16, 17, 18, 19, 20, 21, 29, 30
 31, 32, 33, 34, 35, 43, 44, 45, 46, 47, 48, 49, 57, 58, 59, 60
 61, 62, 63, 71, 72, 73, 74, 75, 76, 77, 85, 86, 87, 88, 89, 90
 91,
*Elset, elset=__PickedSurf456_S3, internal, instance=B-22-7
  1,  2,  3,  4,  5,  6,  7, 15, 16, 17, 18, 19, 20, 21, 29, 30
 31, 32, 33, 34, 35, 43, 44, 45, 46, 47, 48, 49, 57, 58, 59, 60
 61, 62, 63, 71, 72, 73, 74, 75, 76, 77, 85, 86, 87, 88, 89, 90
 91,
*Elset, elset=__PickedSurf456_S3, internal, instance=B-22-5
  1,  2,  3,  4,  5,  6,  7, 15, 16, 17, 18, 19, 20, 21, 29, 30
 31, 32, 33, 34, 35, 43, 44, 45, 46, 47, 48, 49, 57, 58, 59, 60
 61, 62, 63, 71, 72, 73, 74, 75, 76, 77, 85, 86, 87, 88, 89, 90
 91,
*Elset, elset=__PickedSurf456_S3, internal, instance=B-22-9
  1,  2,  3,  4,  5,  6,  7, 15, 16, 17, 18, 19, 20, 21, 29, 30
 31, 32, 33, 34, 35, 43, 44, 45, 46, 47, 48, 49, 57, 58, 59, 60
 61, 62, 63, 71, 72, 73, 74, 75, 76, 77, 85, 86, 87, 88, 89, 90
 91,
*Elset, elset=__PickedSurf456_S3, internal, instance=B-22-3
  1,  2,  3,  4,  5,  6,  7, 15, 16, 17, 18, 19, 20, 21, 29, 30
 31, 32, 33, 34, 35, 43, 44, 45, 46, 47, 48, 49, 57, 58, 59, 60
 61, 62, 63, 71, 72, 73, 74, 75, 76, 77, 85, 86, 87, 88, 89, 90
 91,
*Elset, elset=__PickedSurf456_S3, internal, instance=B-22-1
  1,  2,  3,  4,  5,  6,  7, 15, 16, 17, 18, 19, 20, 21, 29, 30
 31, 32, 33, 34, 35, 43, 44, 45, 46, 47, 48, 49, 57, 58, 59, 60
 61, 62, 63, 71, 72, 73, 74, 75, 76, 77, 85, 86, 87, 88, 89, 90
 91,
*Surface, type=ELEMENT, name=_PickedSurf456, internal
__PickedSurf456_S3, S3
*Elset, elset=__PickedSurf457_S3, internal, instance=B-21-10
  1,  2,  3,  4,  5,  6,  7, 15, 16, 17, 18, 19, 20, 21, 29, 30
 31, 32, 33, 34, 35, 43, 44, 45, 46, 47, 48, 49
*Elset, elset=__PickedSurf457_S3, internal, instance=B-21-9
  1,  2,  3,  4,  5,  6,  7, 15, 16, 17, 18, 19, 20, 21, 29, 30
 31, 32, 33, 34, 35, 43, 44, 45, 46, 47, 48, 49, 57, 58, 59, 60
 61, 62, 63, 71, 72, 73, 74, 75, 76, 77, 85, 86, 87, 88, 89, 90
 91,
*Elset, elset=__PickedSurf457_S3, internal, instance=B-21-8
  1,  2,  3,  4,  5,  6,  7, 15, 16, 17, 18, 19, 20, 21, 29, 30
 31, 32, 33, 34, 35, 43, 44, 45, 46, 47, 48, 49, 57, 58, 59, 60
 61, 62, 63, 71, 72, 73, 74, 75, 76, 77, 85, 86, 87, 88, 89, 90
 91,
*Elset, elset=__PickedSurf457_S3, internal, instance=B-21-1
  1,  2,  3,  4,  5,  6,  7, 15, 16, 17, 18, 19, 20, 21, 29, 30
 31, 32, 33, 34, 35, 43, 44, 45, 46, 47, 48, 49
*Elset, elset=__PickedSurf457_S3, internal, instance=B-21-5
  1,  2,  3,  4,  5,  6,  7, 15, 16, 17, 18, 19, 20, 21, 29, 30
 31, 32, 33, 34, 35, 43, 44, 45, 46, 47, 48, 49, 57, 58, 59, 60
 61, 62, 63, 71, 72, 73, 74, 75, 76, 77, 85, 86, 87, 88, 89, 90
 91,
*Elset, elset=__PickedSurf457_S3, internal, instance=B-21-3
  1,  2,  3,  4,  5,  6,  7, 15, 16, 17, 18, 19, 20, 21, 29, 30
 31, 32, 33, 34, 35, 43, 44, 45, 46, 47, 48, 49, 57, 58, 59, 60
 61, 62, 63, 71, 72, 73, 74, 75, 76, 77, 85, 86, 87, 88, 89, 90
 91,
*Elset, elset=__PickedSurf457_S3, internal, instance=B-21-6
  1,  2,  3,  4,  5,  6,  7, 15, 16, 17, 18, 19, 20, 21, 29, 30
 31, 32, 33, 34, 35, 43, 44, 45, 46, 47, 48, 49, 57, 58, 59, 60
 61, 62, 63, 71, 72, 73, 74, 75, 76, 77, 85, 86, 87, 88, 89, 90
 91,
*Elset, elset=__PickedSurf457_S3, internal, instance=B-21-2
  1,  2,  3,  4,  5,  6,  7, 15, 16, 17, 18, 19, 20, 21, 29, 30
 31, 32, 33, 34, 35, 43, 44, 45, 46, 47, 48, 49, 57, 58, 59, 60
 61, 62, 63, 71, 72, 73, 74, 75, 76, 77, 85, 86, 87, 88, 89, 90
 91,
*Elset, elset=__PickedSurf457_S3, internal, instance=B-21-7
  1,  2,  3,  4,  5,  6,  7, 15, 16, 17, 18, 19, 20, 21, 29, 30
 31, 32, 33, 34, 35, 43, 44, 45, 46, 47, 48, 49, 57, 58, 59, 60
 61, 62, 63, 71, 72, 73, 74, 75, 76, 77, 85, 86, 87, 88, 89, 90
 91,
*Elset, elset=__PickedSurf457_S3, internal, instance=B-21-4
  1,  2,  3,  4,  5,  6,  7, 15, 16, 17, 18, 19, 20, 21, 29, 30
 31, 32, 33, 34, 35, 43, 44, 45, 46, 47, 48, 49, 57, 58, 59, 60
 61, 62, 63, 71, 72, 73, 74, 75, 76, 77, 85, 86, 87, 88, 89, 90
 91,
*Surface, type=ELEMENT, name=_PickedSurf457, internal
__PickedSurf457_S3, S3
*Elset, elset=__PickedSurf458_S3, internal, instance=B-20-8
  1,  2,  3,  4,  5,  6,  7, 15, 16, 17, 18, 19, 20, 21, 29, 30
 31, 32, 33, 34, 35, 43, 44, 45, 46, 47, 48, 49, 57, 58, 59, 60
 61, 62, 63, 71, 72, 73, 74, 75, 76, 77, 85, 86, 87, 88, 89, 90
 91,
*Elset, elset=__PickedSurf458_S3, internal, instance=B-20-6
  1,  2,  3,  4,  5,  6,  7, 15, 16, 17, 18, 19, 20, 21, 29, 30
 31, 32, 33, 34, 35, 43, 44, 45, 46, 47, 48, 49, 57, 58, 59, 60
 61, 62, 63, 71, 72, 73, 74, 75, 76, 77, 85, 86, 87, 88, 89, 90
 91,
*Elset, elset=__PickedSurf458_S3, internal, instance=B-20-4
  1,  2,  3,  4,  5,  6,  7, 15, 16, 17, 18, 19, 20, 21, 29, 30
 31, 32, 33, 34, 35, 43, 44, 45, 46, 47, 48, 49, 57, 58, 59, 60
 61, 62, 63, 71, 72, 73, 74, 75, 76, 77, 85, 86, 87, 88, 89, 90
 91,
*Elset, elset=__PickedSurf458_S3, internal, instance=B-20-9
  1,  2,  3,  4,  5,  6,  7, 15, 16, 17, 18, 19, 20, 21, 29, 30
 31, 32, 33, 34, 35, 43, 44, 45, 46, 47, 48, 49, 57, 58, 59, 60
 61, 62, 63, 71, 72, 73, 74, 75, 76, 77, 85, 86, 87, 88, 89, 90
 91,
*Elset, elset=__PickedSurf458_S3, internal, instance=B-20-3
  1,  2,  3,  4,  5,  6,  7, 15, 16, 17, 18, 19, 20, 21, 29, 30
 31, 32, 33, 34, 35, 43, 44, 45, 46, 47, 48, 49, 57, 58, 59, 60
 61, 62, 63, 71, 72, 73, 74, 75, 76, 77, 85, 86, 87, 88, 89, 90
 91,
*Elset, elset=__PickedSurf458_S3, internal, instance=B-20-1
  1,  2,  3,  4,  5,  6,  7, 15, 16, 17, 18, 19, 20, 21, 29, 30
 31, 32, 33, 34, 35, 43, 44, 45, 46, 47, 48, 49, 57, 58, 59, 60
 61, 62, 63, 71, 72, 73, 74, 75, 76, 77, 85, 86, 87, 88, 89, 90
 91,
*Elset, elset=__PickedSurf458_S3, internal, instance=B-20-2
  1,  2,  3,  4,  5,  6,  7, 15, 16, 17, 18, 19, 20, 21, 29, 30
 31, 32, 33, 34, 35, 43, 44, 45, 46, 47, 48, 49, 57, 58, 59, 60
 61, 62, 63, 71, 72, 73, 74, 75, 76, 77, 85, 86, 87, 88, 89, 90
 91,
*Elset, elset=__PickedSurf458_S3, internal, instance=B-20-5
  1,  2,  3,  4,  5,  6,  7, 15, 16, 17, 18, 19, 20, 21, 29, 30
 31, 32, 33, 34, 35, 43, 44, 45, 46, 47, 48, 49, 57, 58, 59, 60
 61, 62, 63, 71, 72, 73, 74, 75, 76, 77, 85, 86, 87, 88, 89, 90
 91,
*Elset, elset=__PickedSurf458_S3, internal, instance=B-20-7
  1,  2,  3,  4,  5,  6,  7, 15, 16, 17, 18, 19, 20, 21, 29, 30
 31, 32, 33, 34, 35, 43, 44, 45, 46, 47, 48, 49, 57, 58, 59, 60
 61, 62, 63, 71, 72, 73, 74, 75, 76, 77, 85, 86, 87, 88, 89, 90
 91,
*Surface, type=ELEMENT, name=_PickedSurf458, internal
__PickedSurf458_S3, S3
*Elset, elset=__PickedSurf459_S3, internal, instance=B-19-10
  1,  2,  3,  4,  5,  6,  7, 15, 16, 17, 18, 19, 20, 21, 29, 30
 31, 32, 33, 34, 35, 43, 44, 45, 46, 47, 48, 49
*Elset, elset=__PickedSurf459_S3, internal, instance=B-19-9
  1,  2,  3,  4,  5,  6,  7, 15, 16, 17, 18, 19, 20, 21, 29, 30
 31, 32, 33, 34, 35, 43, 44, 45, 46, 47, 48, 49, 57, 58, 59, 60
 61, 62, 63, 71, 72, 73, 74, 75, 76, 77, 85, 86, 87, 88, 89, 90
 91,
*Elset, elset=__PickedSurf459_S3, internal, instance=B-19-8
  1,  2,  3,  4,  5,  6,  7, 15, 16, 17, 18, 19, 20, 21, 29, 30
 31, 32, 33, 34, 35, 43, 44, 45, 46, 47, 48, 49, 57, 58, 59, 60
 61, 62, 63, 71, 72, 73, 74, 75, 76, 77, 85, 86, 87, 88, 89, 90
 91,
*Elset, elset=__PickedSurf459_S3, internal, instance=B-19-6
  1,  2,  3,  4,  5,  6,  7, 15, 16, 17, 18, 19, 20, 21, 29, 30
 31, 32, 33, 34, 35, 43, 44, 45, 46, 47, 48, 49, 57, 58, 59, 60
 61, 62, 63, 71, 72, 73, 74, 75, 76, 77, 85, 86, 87, 88, 89, 90
 91,
*Elset, elset=__PickedSurf459_S3, internal, instance=B-19-2
  1,  2,  3,  4,  5,  6,  7, 15, 16, 17, 18, 19, 20, 21, 29, 30
 31, 32, 33, 34, 35, 43, 44, 45, 46, 47, 48, 49, 57, 58, 59, 60
 61, 62, 63, 71, 72, 73, 74, 75, 76, 77, 85, 86, 87, 88, 89, 90
 91,
*Elset, elset=__PickedSurf459_S3, internal, instance=B-19-7
  1,  2,  3,  4,  5,  6,  7, 15, 16, 17, 18, 19, 20, 21, 29, 30
 31, 32, 33, 34, 35, 43, 44, 45, 46, 47, 48, 49, 57, 58, 59, 60
 61, 62, 63, 71, 72, 73, 74, 75, 76, 77, 85, 86, 87, 88, 89, 90
 91,
*Elset, elset=__PickedSurf459_S3, internal, instance=B-19-4
  1,  2,  3,  4,  5,  6,  7, 15, 16, 17, 18, 19, 20, 21, 29, 30
 31, 32, 33, 34, 35, 43, 44, 45, 46, 47, 48, 49, 57, 58, 59, 60
 61, 62, 63, 71, 72, 73, 74, 75, 76, 77, 85, 86, 87, 88, 89, 90
 91,
*Elset, elset=__PickedSurf459_S3, internal, instance=B-19-1
  1,  2,  3,  4,  5,  6,  7, 15, 16, 17, 18, 19, 20, 21, 29, 30
 31, 32, 33, 34, 35, 43, 44, 45, 46, 47, 48, 49
*Elset, elset=__PickedSurf459_S3, internal, instance=B-19-3
  1,  2,  3,  4,  5,  6,  7, 15, 16, 17, 18, 19, 20, 21, 29, 30
 31, 32, 33, 34, 35, 43, 44, 45, 46, 47, 48, 49, 57, 58, 59, 60
 61, 62, 63, 71, 72, 73, 74, 75, 76, 77, 85, 86, 87, 88, 89, 90
 91,
*Elset, elset=__PickedSurf459_S3, internal, instance=B-19-5
  1,  2,  3,  4,  5,  6,  7, 15, 16, 17, 18, 19, 20, 21, 29, 30
 31, 32, 33, 34, 35, 43, 44, 45, 46, 47, 48, 49, 57, 58, 59, 60
 61, 62, 63, 71, 72, 73, 74, 75, 76, 77, 85, 86, 87, 88, 89, 90
 91,
*Surface, type=ELEMENT, name=_PickedSurf459, internal
__PickedSurf459_S3, S3
*Elset, elset=__PickedSurf460_S3, internal, instance=B-18-8
  1,  2,  3,  4,  5,  6,  7, 15, 16, 17, 18, 19, 20, 21, 29, 30
 31, 32, 33, 34, 35, 43, 44, 45, 46, 47, 48, 49, 57, 58, 59, 60
 61, 62, 63, 71, 72, 73, 74, 75, 76, 77, 85, 86, 87, 88, 89, 90
 91,
*Elset, elset=__PickedSurf460_S3, internal, instance=B-18-6
  1,  2,  3,  4,  5,  6,  7, 15, 16, 17, 18, 19, 20, 21, 29, 30
 31, 32, 33, 34, 35, 43, 44, 45, 46, 47, 48, 49, 57, 58, 59, 60
 61, 62, 63, 71, 72, 73, 74, 75, 76, 77, 85, 86, 87, 88, 89, 90
 91,
*Elset, elset=__PickedSurf460_S3, internal, instance=B-18-4
  1,  2,  3,  4,  5,  6,  7, 15, 16, 17, 18, 19, 20, 21, 29, 30
 31, 32, 33, 34, 35, 43, 44, 45, 46, 47, 48, 49, 57, 58, 59, 60
 61, 62, 63, 71, 72, 73, 74, 75, 76, 77, 85, 86, 87, 88, 89, 90
 91,
*Elset, elset=__PickedSurf460_S3, internal, instance=B-18-9
  1,  2,  3,  4,  5,  6,  7, 15, 16, 17, 18, 19, 20, 21, 29, 30
 31, 32, 33, 34, 35, 43, 44, 45, 46, 47, 48, 49, 57, 58, 59, 60
 61, 62, 63, 71, 72, 73, 74, 75, 76, 77, 85, 86, 87, 88, 89, 90
 91,
*Elset, elset=__PickedSurf460_S3, internal, instance=B-18-3
  1,  2,  3,  4,  5,  6,  7, 15, 16, 17, 18, 19, 20, 21, 29, 30
 31, 32, 33, 34, 35, 43, 44, 45, 46, 47, 48, 49, 57, 58, 59, 60
 61, 62, 63, 71, 72, 73, 74, 75, 76, 77, 85, 86, 87, 88, 89, 90
 91,
*Elset, elset=__PickedSurf460_S3, internal, instance=B-18-1
  1,  2,  3,  4,  5,  6,  7, 15, 16, 17, 18, 19, 20, 21, 29, 30
 31, 32, 33, 34, 35, 43, 44, 45, 46, 47, 48, 49, 57, 58, 59, 60
 61, 62, 63, 71, 72, 73, 74, 75, 76, 77, 85, 86, 87, 88, 89, 90
 91,
*Elset, elset=__PickedSurf460_S3, internal, instance=B-18-2
  1,  2,  3,  4,  5,  6,  7, 15, 16, 17, 18, 19, 20, 21, 29, 30
 31, 32, 33, 34, 35, 43, 44, 45, 46, 47, 48, 49, 57, 58, 59, 60
 61, 62, 63, 71, 72, 73, 74, 75, 76, 77, 85, 86, 87, 88, 89, 90
 91,
*Elset, elset=__PickedSurf460_S3, internal, instance=B-18-5
  1,  2,  3,  4,  5,  6,  7, 15, 16, 17, 18, 19, 20, 21, 29, 30
 31, 32, 33, 34, 35, 43, 44, 45, 46, 47, 48, 49, 57, 58, 59, 60
 61, 62, 63, 71, 72, 73, 74, 75, 76, 77, 85, 86, 87, 88, 89, 90
 91,
*Elset, elset=__PickedSurf460_S3, internal, instance=B-18-7
  1,  2,  3,  4,  5,  6,  7, 15, 16, 17, 18, 19, 20, 21, 29, 30
 31, 32, 33, 34, 35, 43, 44, 45, 46, 47, 48, 49, 57, 58, 59, 60
 61, 62, 63, 71, 72, 73, 74, 75, 76, 77, 85, 86, 87, 88, 89, 90
 91,
*Surface, type=ELEMENT, name=_PickedSurf460, internal
__PickedSurf460_S3, S3
*Elset, elset=__PickedSurf461_S3, internal, instance=B-17-10
  1,  2,  3,  4,  5,  6,  7, 15, 16, 17, 18, 19, 20, 21, 29, 30
 31, 32, 33, 34, 35, 43, 44, 45, 46, 47, 48, 49
*Elset, elset=__PickedSurf461_S3, internal, instance=B-17-9
  1,  2,  3,  4,  5,  6,  7, 15, 16, 17, 18, 19, 20, 21, 29, 30
 31, 32, 33, 34, 35, 43, 44, 45, 46, 47, 48, 49, 57, 58, 59, 60
 61, 62, 63, 71, 72, 73, 74, 75, 76, 77, 85, 86, 87, 88, 89, 90
 91,
*Elset, elset=__PickedSurf461_S3, internal, instance=B-17-8
  1,  2,  3,  4,  5,  6,  7, 15, 16, 17, 18, 19, 20, 21, 29, 30
 31, 32, 33, 34, 35, 43, 44, 45, 46, 47, 48, 49, 57, 58, 59, 60
 61, 62, 63, 71, 72, 73, 74, 75, 76, 77, 85, 86, 87, 88, 89, 90
 91,
*Elset, elset=__PickedSurf461_S3, internal, instance=B-17-6
  1,  2,  3,  4,  5,  6,  7, 15, 16, 17, 18, 19, 20, 21, 29, 30
 31, 32, 33, 34, 35, 43, 44, 45, 46, 47, 48, 49, 57, 58, 59, 60
 61, 62, 63, 71, 72, 73, 74, 75, 76, 77, 85, 86, 87, 88, 89, 90
 91,
*Elset, elset=__PickedSurf461_S3, internal, instance=B-17-2
  1,  2,  3,  4,  5,  6,  7, 15, 16, 17, 18, 19, 20, 21, 29, 30
 31, 32, 33, 34, 35, 43, 44, 45, 46, 47, 48, 49, 57, 58, 59, 60
 61, 62, 63, 71, 72, 73, 74, 75, 76, 77, 85, 86, 87, 88, 89, 90
 91,
*Elset, elset=__PickedSurf461_S3, internal, instance=B-17-7
  1,  2,  3,  4,  5,  6,  7, 15, 16, 17, 18, 19, 20, 21, 29, 30
 31, 32, 33, 34, 35, 43, 44, 45, 46, 47, 48, 49, 57, 58, 59, 60
 61, 62, 63, 71, 72, 73, 74, 75, 76, 77, 85, 86, 87, 88, 89, 90
 91,
*Elset, elset=__PickedSurf461_S3, internal, instance=B-17-4
  1,  2,  3,  4,  5,  6,  7, 15, 16, 17, 18, 19, 20, 21, 29, 30
 31, 32, 33, 34, 35, 43, 44, 45, 46, 47, 48, 49, 57, 58, 59, 60
 61, 62, 63, 71, 72, 73, 74, 75, 76, 77, 85, 86, 87, 88, 89, 90
 91,
*Elset, elset=__PickedSurf461_S3, internal, instance=B-17-1
  1,  2,  3,  4,  5,  6,  7, 15, 16, 17, 18, 19, 20, 21, 29, 30
 31, 32, 33, 34, 35, 43, 44, 45, 46, 47, 48, 49
*Elset, elset=__PickedSurf461_S3, internal, instance=B-17-3
  1,  2,  3,  4,  5,  6,  7, 15, 16, 17, 18, 19, 20, 21, 29, 30
 31, 32, 33, 34, 35, 43, 44, 45, 46, 47, 48, 49, 57, 58, 59, 60
 61, 62, 63, 71, 72, 73, 74, 75, 76, 77, 85, 86, 87, 88, 89, 90
 91,
*Elset, elset=__PickedSurf461_S3, internal, instance=B-17-5
  1,  2,  3,  4,  5,  6,  7, 15, 16, 17, 18, 19, 20, 21, 29, 30
 31, 32, 33, 34, 35, 43, 44, 45, 46, 47, 48, 49, 57, 58, 59, 60
 61, 62, 63, 71, 72, 73, 74, 75, 76, 77, 85, 86, 87, 88, 89, 90
 91,
*Surface, type=ELEMENT, name=_PickedSurf461, internal
__PickedSurf461_S3, S3
*Elset, elset=__PickedSurf462_S3, internal, instance=B-16-8
  1,  2,  3,  4,  5,  6,  7, 15, 16, 17, 18, 19, 20, 21, 29, 30
 31, 32, 33, 34, 35, 43, 44, 45, 46, 47, 48, 49, 57, 58, 59, 60
 61, 62, 63, 71, 72, 73, 74, 75, 76, 77, 85, 86, 87, 88, 89, 90
 91,
*Elset, elset=__PickedSurf462_S3, internal, instance=B-16-6
  1,  2,  3,  4,  5,  6,  7, 15, 16, 17, 18, 19, 20, 21, 29, 30
 31, 32, 33, 34, 35, 43, 44, 45, 46, 47, 48, 49, 57, 58, 59, 60
 61, 62, 63, 71, 72, 73, 74, 75, 76, 77, 85, 86, 87, 88, 89, 90
 91,
*Elset, elset=__PickedSurf462_S3, internal, instance=B-16-4
  1,  2,  3,  4,  5,  6,  7, 15, 16, 17, 18, 19, 20, 21, 29, 30
 31, 32, 33, 34, 35, 43, 44, 45, 46, 47, 48, 49, 57, 58, 59, 60
 61, 62, 63, 71, 72, 73, 74, 75, 76, 77, 85, 86, 87, 88, 89, 90
 91,
*Elset, elset=__PickedSurf462_S3, internal, instance=B-16-2
  1,  2,  3,  4,  5,  6,  7, 15, 16, 17, 18, 19, 20, 21, 29, 30
 31, 32, 33, 34, 35, 43, 44, 45, 46, 47, 48, 49, 57, 58, 59, 60
 61, 62, 63, 71, 72, 73, 74, 75, 76, 77, 85, 86, 87, 88, 89, 90
 91,
*Elset, elset=__PickedSurf462_S3, internal, instance=B-16-5
  1,  2,  3,  4,  5,  6,  7, 15, 16, 17, 18, 19, 20, 21, 29, 30
 31, 32, 33, 34, 35, 43, 44, 45, 46, 47, 48, 49, 57, 58, 59, 60
 61, 62, 63, 71, 72, 73, 74, 75, 76, 77, 85, 86, 87, 88, 89, 90
 91,
*Elset, elset=__PickedSurf462_S3, internal, instance=B-16-7
  1,  2,  3,  4,  5,  6,  7, 15, 16, 17, 18, 19, 20, 21, 29, 30
 31, 32, 33, 34, 35, 43, 44, 45, 46, 47, 48, 49, 57, 58, 59, 60
 61, 62, 63, 71, 72, 73, 74, 75, 76, 77, 85, 86, 87, 88, 89, 90
 91,
*Elset, elset=__PickedSurf462_S3, internal, instance=B-16-9
  1,  2,  3,  4,  5,  6,  7, 15, 16, 17, 18, 19, 20, 21, 29, 30
 31, 32, 33, 34, 35, 43, 44, 45, 46, 47, 48, 49, 57, 58, 59, 60
 61, 62, 63, 71, 72, 73, 74, 75, 76, 77, 85, 86, 87, 88, 89, 90
 91,
*Elset, elset=__PickedSurf462_S3, internal, instance=B-16-1
  1,  2,  3,  4,  5,  6,  7, 15, 16, 17, 18, 19, 20, 21, 29, 30
 31, 32, 33, 34, 35, 43, 44, 45, 46, 47, 48, 49, 57, 58, 59, 60
 61, 62, 63, 71, 72, 73, 74, 75, 76, 77, 85, 86, 87, 88, 89, 90
 91,
*Elset, elset=__PickedSurf462_S3, internal, instance=B-16-3
  1,  2,  3,  4,  5,  6,  7, 15, 16, 17, 18, 19, 20, 21, 29, 30
 31, 32, 33, 34, 35, 43, 44, 45, 46, 47, 48, 49, 57, 58, 59, 60
 61, 62, 63, 71, 72, 73, 74, 75, 76, 77, 85, 86, 87, 88, 89, 90
 91,
*Surface, type=ELEMENT, name=_PickedSurf462, internal
__PickedSurf462_S3, S3
*Elset, elset=__PickedSurf463_S3, internal, instance=B-15-10
  1,  2,  3,  4,  5,  6,  7, 15, 16, 17, 18, 19, 20, 21, 29, 30
 31, 32, 33, 34, 35, 43, 44, 45, 46, 47, 48, 49
*Elset, elset=__PickedSurf463_S3, internal, instance=B-15-9
  1,  2,  3,  4,  5,  6,  7, 15, 16, 17, 18, 19, 20, 21, 29, 30
 31, 32, 33, 34, 35, 43, 44, 45, 46, 47, 48, 49, 57, 58, 59, 60
 61, 62, 63, 71, 72, 73, 74, 75, 76, 77, 85, 86, 87, 88, 89, 90
 91,
*Elset, elset=__PickedSurf463_S3, internal, instance=B-15-8
  1,  2,  3,  4,  5,  6,  7, 15, 16, 17, 18, 19, 20, 21, 29, 30
 31, 32, 33, 34, 35, 43, 44, 45, 46, 47, 48, 49, 57, 58, 59, 60
 61, 62, 63, 71, 72, 73, 74, 75, 76, 77, 85, 86, 87, 88, 89, 90
 91,
*Elset, elset=__PickedSurf463_S3, internal, instance=B-15-1
  1,  2,  3,  4,  5,  6,  7, 15, 16, 17, 18, 19, 20, 21, 29, 30
 31, 32, 33, 34, 35, 43, 44, 45, 46, 47, 48, 49
*Elset, elset=__PickedSurf463_S3, internal, instance=B-15-3
  1,  2,  3,  4,  5,  6,  7, 15, 16, 17, 18, 19, 20, 21, 29, 30
 31, 32, 33, 34, 35, 43, 44, 45, 46, 47, 48, 49, 57, 58, 59, 60
 61, 62, 63, 71, 72, 73, 74, 75, 76, 77, 85, 86, 87, 88, 89, 90
 91,
*Elset, elset=__PickedSurf463_S3, internal, instance=B-15-5
  1,  2,  3,  4,  5,  6,  7, 15, 16, 17, 18, 19, 20, 21, 29, 30
 31, 32, 33, 34, 35, 43, 44, 45, 46, 47, 48, 49, 57, 58, 59, 60
 61, 62, 63, 71, 72, 73, 74, 75, 76, 77, 85, 86, 87, 88, 89, 90
 91,
*Elset, elset=__PickedSurf463_S3, internal, instance=B-15-6
  1,  2,  3,  4,  5,  6,  7, 15, 16, 17, 18, 19, 20, 21, 29, 30
 31, 32, 33, 34, 35, 43, 44, 45, 46, 47, 48, 49, 57, 58, 59, 60
 61, 62, 63, 71, 72, 73, 74, 75, 76, 77, 85, 86, 87, 88, 89, 90
 91,
*Elset, elset=__PickedSurf463_S3, internal, instance=B-15-4
  1,  2,  3,  4,  5,  6,  7, 15, 16, 17, 18, 19, 20, 21, 29, 30
 31, 32, 33, 34, 35, 43, 44, 45, 46, 47, 48, 49, 57, 58, 59, 60
 61, 62, 63, 71, 72, 73, 74, 75, 76, 77, 85, 86, 87, 88, 89, 90
 91,
*Elset, elset=__PickedSurf463_S3, internal, instance=B-15-2
  1,  2,  3,  4,  5,  6,  7, 15, 16, 17, 18, 19, 20, 21, 29, 30
 31, 32, 33, 34, 35, 43, 44, 45, 46, 47, 48, 49, 57, 58, 59, 60
 61, 62, 63, 71, 72, 73, 74, 75, 76, 77, 85, 86, 87, 88, 89, 90
 91,
*Elset, elset=__PickedSurf463_S3, internal, instance=B-15-7
  1,  2,  3,  4,  5,  6,  7, 15, 16, 17, 18, 19, 20, 21, 29, 30
 31, 32, 33, 34, 35, 43, 44, 45, 46, 47, 48, 49, 57, 58, 59, 60
 61, 62, 63, 71, 72, 73, 74, 75, 76, 77, 85, 86, 87, 88, 89, 90
 91,
*Surface, type=ELEMENT, name=_PickedSurf463, internal
__PickedSurf463_S3, S3
*Elset, elset=__PickedSurf464_S3, internal, instance=B-14-8
  1,  2,  3,  4,  5,  6,  7, 15, 16, 17, 18, 19, 20, 21, 29, 30
 31, 32, 33, 34, 35, 43, 44, 45, 46, 47, 48, 49, 57, 58, 59, 60
 61, 62, 63, 71, 72, 73, 74, 75, 76, 77, 85, 86, 87, 88, 89, 90
 91,
*Elset, elset=__PickedSurf464_S3, internal, instance=B-14-6
  1,  2,  3,  4,  5,  6,  7, 15, 16, 17, 18, 19, 20, 21, 29, 30
 31, 32, 33, 34, 35, 43, 44, 45, 46, 47, 48, 49, 57, 58, 59, 60
 61, 62, 63, 71, 72, 73, 74, 75, 76, 77, 85, 86, 87, 88, 89, 90
 91,
*Elset, elset=__PickedSurf464_S3, internal, instance=B-14-4
  1,  2,  3,  4,  5,  6,  7, 15, 16, 17, 18, 19, 20, 21, 29, 30
 31, 32, 33, 34, 35, 43, 44, 45, 46, 47, 48, 49, 57, 58, 59, 60
 61, 62, 63, 71, 72, 73, 74, 75, 76, 77, 85, 86, 87, 88, 89, 90
 91,
*Elset, elset=__PickedSurf464_S3, internal, instance=B-14-2
  1,  2,  3,  4,  5,  6,  7, 15, 16, 17, 18, 19, 20, 21, 29, 30
 31, 32, 33, 34, 35, 43, 44, 45, 46, 47, 48, 49, 57, 58, 59, 60
 61, 62, 63, 71, 72, 73, 74, 75, 76, 77, 85, 86, 87, 88, 89, 90
 91,
*Elset, elset=__PickedSurf464_S3, internal, instance=B-14-5
  1,  2,  3,  4,  5,  6,  7, 15, 16, 17, 18, 19, 20, 21, 29, 30
 31, 32, 33, 34, 35, 43, 44, 45, 46, 47, 48, 49, 57, 58, 59, 60
 61, 62, 63, 71, 72, 73, 74, 75, 76, 77, 85, 86, 87, 88, 89, 90
 91,
*Elset, elset=__PickedSurf464_S3, internal, instance=B-14-7
  1,  2,  3,  4,  5,  6,  7, 15, 16, 17, 18, 19, 20, 21, 29, 30
 31, 32, 33, 34, 35, 43, 44, 45, 46, 47, 48, 49, 57, 58, 59, 60
 61, 62, 63, 71, 72, 73, 74, 75, 76, 77, 85, 86, 87, 88, 89, 90
 91,
*Elset, elset=__PickedSurf464_S3, internal, instance=B-14-9
  1,  2,  3,  4,  5,  6,  7, 15, 16, 17, 18, 19, 20, 21, 29, 30
 31, 32, 33, 34, 35, 43, 44, 45, 46, 47, 48, 49, 57, 58, 59, 60
 61, 62, 63, 71, 72, 73, 74, 75, 76, 77, 85, 86, 87, 88, 89, 90
 91,
*Elset, elset=__PickedSurf464_S3, internal, instance=B-14-1
  1,  2,  3,  4,  5,  6,  7, 15, 16, 17, 18, 19, 20, 21, 29, 30
 31, 32, 33, 34, 35, 43, 44, 45, 46, 47, 48, 49, 57, 58, 59, 60
 61, 62, 63, 71, 72, 73, 74, 75, 76, 77, 85, 86, 87, 88, 89, 90
 91,
*Elset, elset=__PickedSurf464_S3, internal, instance=B-14-3
  1,  2,  3,  4,  5,  6,  7, 15, 16, 17, 18, 19, 20, 21, 29, 30
 31, 32, 33, 34, 35, 43, 44, 45, 46, 47, 48, 49, 57, 58, 59, 60
 61, 62, 63, 71, 72, 73, 74, 75, 76, 77, 85, 86, 87, 88, 89, 90
 91,
*Surface, type=ELEMENT, name=_PickedSurf464, internal
__PickedSurf464_S3, S3
*Elset, elset=__PickedSurf465_S3, internal, instance=B-13-10
  1,  2,  3,  4,  5,  6,  7, 15, 16, 17, 18, 19, 20, 21, 29, 30
 31, 32, 33, 34, 35, 43, 44, 45, 46, 47, 48, 49
*Elset, elset=__PickedSurf465_S3, internal, instance=B-13-9
  1,  2,  3,  4,  5,  6,  7, 15, 16, 17, 18, 19, 20, 21, 29, 30
 31, 32, 33, 34, 35, 43, 44, 45, 46, 47, 48, 49, 57, 58, 59, 60
 61, 62, 63, 71, 72, 73, 74, 75, 76, 77, 85, 86, 87, 88, 89, 90
 91,
*Elset, elset=__PickedSurf465_S3, internal, instance=B-13-8
  1,  2,  3,  4,  5,  6,  7, 15, 16, 17, 18, 19, 20, 21, 29, 30
 31, 32, 33, 34, 35, 43, 44, 45, 46, 47, 48, 49, 57, 58, 59, 60
 61, 62, 63, 71, 72, 73, 74, 75, 76, 77, 85, 86, 87, 88, 89, 90
 91,
*Elset, elset=__PickedSurf465_S3, internal, instance=B-13-1
  1,  2,  3,  4,  5,  6,  7, 15, 16, 17, 18, 19, 20, 21, 29, 30
 31, 32, 33, 34, 35, 43, 44, 45, 46, 47, 48, 49
*Elset, elset=__PickedSurf465_S3, internal, instance=B-13-3
  1,  2,  3,  4,  5,  6,  7, 15, 16, 17, 18, 19, 20, 21, 29, 30
 31, 32, 33, 34, 35, 43, 44, 45, 46, 47, 48, 49, 57, 58, 59, 60
 61, 62, 63, 71, 72, 73, 74, 75, 76, 77, 85, 86, 87, 88, 89, 90
 91,
*Elset, elset=__PickedSurf465_S3, internal, instance=B-13-5
  1,  2,  3,  4,  5,  6,  7, 15, 16, 17, 18, 19, 20, 21, 29, 30
 31, 32, 33, 34, 35, 43, 44, 45, 46, 47, 48, 49, 57, 58, 59, 60
 61, 62, 63, 71, 72, 73, 74, 75, 76, 77, 85, 86, 87, 88, 89, 90
 91,
*Elset, elset=__PickedSurf465_S3, internal, instance=B-13-6
  1,  2,  3,  4,  5,  6,  7, 15, 16, 17, 18, 19, 20, 21, 29, 30
 31, 32, 33, 34, 35, 43, 44, 45, 46, 47, 48, 49, 57, 58, 59, 60
 61, 62, 63, 71, 72, 73, 74, 75, 76, 77, 85, 86, 87, 88, 89, 90
 91,
*Elset, elset=__PickedSurf465_S3, internal, instance=B-13-4
  1,  2,  3,  4,  5,  6,  7, 15, 16, 17, 18, 19, 20, 21, 29, 30
 31, 32, 33, 34, 35, 43, 44, 45, 46, 47, 48, 49, 57, 58, 59, 60
 61, 62, 63, 71, 72, 73, 74, 75, 76, 77, 85, 86, 87, 88, 89, 90
 91,
*Elset, elset=__PickedSurf465_S3, internal, instance=B-13-2
  1,  2,  3,  4,  5,  6,  7, 15, 16, 17, 18, 19, 20, 21, 29, 30
 31, 32, 33, 34, 35, 43, 44, 45, 46, 47, 48, 49, 57, 58, 59, 60
 61, 62, 63, 71, 72, 73, 74, 75, 76, 77, 85, 86, 87, 88, 89, 90
 91,
*Elset, elset=__PickedSurf465_S3, internal, instance=B-13-7
  1,  2,  3,  4,  5,  6,  7, 15, 16, 17, 18, 19, 20, 21, 29, 30
 31, 32, 33, 34, 35, 43, 44, 45, 46, 47, 48, 49, 57, 58, 59, 60
 61, 62, 63, 71, 72, 73, 74, 75, 76, 77, 85, 86, 87, 88, 89, 90
 91,
*Surface, type=ELEMENT, name=_PickedSurf465, internal
__PickedSurf465_S3, S3
*Elset, elset=__PickedSurf466_S3, internal, instance=B-12-8
  1,  2,  3,  4,  5,  6,  7, 15, 16, 17, 18, 19, 20, 21, 29, 30
 31, 32, 33, 34, 35, 43, 44, 45, 46, 47, 48, 49, 57, 58, 59, 60
 61, 62, 63, 71, 72, 73, 74, 75, 76, 77, 85, 86, 87, 88, 89, 90
 91,
*Elset, elset=__PickedSurf466_S3, internal, instance=B-12-6
  1,  2,  3,  4,  5,  6,  7, 15, 16, 17, 18, 19, 20, 21, 29, 30
 31, 32, 33, 34, 35, 43, 44, 45, 46, 47, 48, 49, 57, 58, 59, 60
 61, 62, 63, 71, 72, 73, 74, 75, 76, 77, 85, 86, 87, 88, 89, 90
 91,
*Elset, elset=__PickedSurf466_S3, internal, instance=B-12-4
  1,  2,  3,  4,  5,  6,  7, 15, 16, 17, 18, 19, 20, 21, 29, 30
 31, 32, 33, 34, 35, 43, 44, 45, 46, 47, 48, 49, 57, 58, 59, 60
 61, 62, 63, 71, 72, 73, 74, 75, 76, 77, 85, 86, 87, 88, 89, 90
 91,
*Elset, elset=__PickedSurf466_S3, internal, instance=B-12-9
  1,  2,  3,  4,  5,  6,  7, 15, 16, 17, 18, 19, 20, 21, 29, 30
 31, 32, 33, 34, 35, 43, 44, 45, 46, 47, 48, 49, 57, 58, 59, 60
 61, 62, 63, 71, 72, 73, 74, 75, 76, 77, 85, 86, 87, 88, 89, 90
 91,
*Elset, elset=__PickedSurf466_S3, internal, instance=B-12-1
  1,  2,  3,  4,  5,  6,  7, 15, 16, 17, 18, 19, 20, 21, 29, 30
 31, 32, 33, 34, 35, 43, 44, 45, 46, 47, 48, 49, 57, 58, 59, 60
 61, 62, 63, 71, 72, 73, 74, 75, 76, 77, 85, 86, 87, 88, 89, 90
 91,
*Elset, elset=__PickedSurf466_S3, internal, instance=B-12-3
  1,  2,  3,  4,  5,  6,  7, 15, 16, 17, 18, 19, 20, 21, 29, 30
 31, 32, 33, 34, 35, 43, 44, 45, 46, 47, 48, 49, 57, 58, 59, 60
 61, 62, 63, 71, 72, 73, 74, 75, 76, 77, 85, 86, 87, 88, 89, 90
 91,
*Elset, elset=__PickedSurf466_S3, internal, instance=B-12-2
  1,  2,  3,  4,  5,  6,  7, 15, 16, 17, 18, 19, 20, 21, 29, 30
 31, 32, 33, 34, 35, 43, 44, 45, 46, 47, 48, 49, 57, 58, 59, 60
 61, 62, 63, 71, 72, 73, 74, 75, 76, 77, 85, 86, 87, 88, 89, 90
 91,
*Elset, elset=__PickedSurf466_S3, internal, instance=B-12-7
  1,  2,  3,  4,  5,  6,  7, 15, 16, 17, 18, 19, 20, 21, 29, 30
 31, 32, 33, 34, 35, 43, 44, 45, 46, 47, 48, 49, 57, 58, 59, 60
 61, 62, 63, 71, 72, 73, 74, 75, 76, 77, 85, 86, 87, 88, 89, 90
 91,
*Elset, elset=__PickedSurf466_S3, internal, instance=B-12-5
  1,  2,  3,  4,  5,  6,  7, 15, 16, 17, 18, 19, 20, 21, 29, 30
 31, 32, 33, 34, 35, 43, 44, 45, 46, 47, 48, 49, 57, 58, 59, 60
 61, 62, 63, 71, 72, 73, 74, 75, 76, 77, 85, 86, 87, 88, 89, 90
 91,
*Surface, type=ELEMENT, name=_PickedSurf466, internal
__PickedSurf466_S3, S3
*Elset, elset=__PickedSurf467_S3, internal, instance=B-11-10
  1,  2,  3,  4,  5,  6,  7, 15, 16, 17, 18, 19, 20, 21, 29, 30
 31, 32, 33, 34, 35, 43, 44, 45, 46, 47, 48, 49
*Elset, elset=__PickedSurf467_S3, internal, instance=B-11-9
  1,  2,  3,  4,  5,  6,  7, 15, 16, 17, 18, 19, 20, 21, 29, 30
 31, 32, 33, 34, 35, 43, 44, 45, 46, 47, 48, 49, 57, 58, 59, 60
 61, 62, 63, 71, 72, 73, 74, 75, 76, 77, 85, 86, 87, 88, 89, 90
 91,
*Elset, elset=__PickedSurf467_S3, internal, instance=B-11-8
  1,  2,  3,  4,  5,  6,  7, 15, 16, 17, 18, 19, 20, 21, 29, 30
 31, 32, 33, 34, 35, 43, 44, 45, 46, 47, 48, 49, 57, 58, 59, 60
 61, 62, 63, 71, 72, 73, 74, 75, 76, 77, 85, 86, 87, 88, 89, 90
 91,
*Elset, elset=__PickedSurf467_S3, internal, instance=B-11-6
  1,  2,  3,  4,  5,  6,  7, 15, 16, 17, 18, 19, 20, 21, 29, 30
 31, 32, 33, 34, 35, 43, 44, 45, 46, 47, 48, 49, 57, 58, 59, 60
 61, 62, 63, 71, 72, 73, 74, 75, 76, 77, 85, 86, 87, 88, 89, 90
 91,
*Elset, elset=__PickedSurf467_S3, internal, instance=B-11-4
  1,  2,  3,  4,  5,  6,  7, 15, 16, 17, 18, 19, 20, 21, 29, 30
 31, 32, 33, 34, 35, 43, 44, 45, 46, 47, 48, 49, 57, 58, 59, 60
 61, 62, 63, 71, 72, 73, 74, 75, 76, 77, 85, 86, 87, 88, 89, 90
 91,
*Elset, elset=__PickedSurf467_S3, internal, instance=B-11-2
  1,  2,  3,  4,  5,  6,  7, 15, 16, 17, 18, 19, 20, 21, 29, 30
 31, 32, 33, 34, 35, 43, 44, 45, 46, 47, 48, 49, 57, 58, 59, 60
 61, 62, 63, 71, 72, 73, 74, 75, 76, 77, 85, 86, 87, 88, 89, 90
 91,
*Elset, elset=__PickedSurf467_S3, internal, instance=B-11-7
  1,  2,  3,  4,  5,  6,  7, 15, 16, 17, 18, 19, 20, 21, 29, 30
 31, 32, 33, 34, 35, 43, 44, 45, 46, 47, 48, 49, 57, 58, 59, 60
 61, 62, 63, 71, 72, 73, 74, 75, 76, 77, 85, 86, 87, 88, 89, 90
 91,
*Elset, elset=__PickedSurf467_S3, internal, instance=B-11-1
  1,  2,  3,  4,  5,  6,  7, 15, 16, 17, 18, 19, 20, 21, 29, 30
 31, 32, 33, 34, 35, 43, 44, 45, 46, 47, 48, 49
*Elset, elset=__PickedSurf467_S3, internal, instance=B-11-5
  1,  2,  3,  4,  5,  6,  7, 15, 16, 17, 18, 19, 20, 21, 29, 30
 31, 32, 33, 34, 35, 43, 44, 45, 46, 47, 48, 49, 57, 58, 59, 60
 61, 62, 63, 71, 72, 73, 74, 75, 76, 77, 85, 86, 87, 88, 89, 90
 91,
*Elset, elset=__PickedSurf467_S3, internal, instance=B-11-3
  1,  2,  3,  4,  5,  6,  7, 15, 16, 17, 18, 19, 20, 21, 29, 30
 31, 32, 33, 34, 35, 43, 44, 45, 46, 47, 48, 49, 57, 58, 59, 60
 61, 62, 63, 71, 72, 73, 74, 75, 76, 77, 85, 86, 87, 88, 89, 90
 91,
*Surface, type=ELEMENT, name=_PickedSurf467, internal
__PickedSurf467_S3, S3
*Elset, elset=__PickedSurf468_S3, internal, instance=B-10-8
  1,  2,  3,  4,  5,  6,  7, 15, 16, 17, 18, 19, 20, 21, 29, 30
 31, 32, 33, 34, 35, 43, 44, 45, 46, 47, 48, 49, 57, 58, 59, 60
 61, 62, 63, 71, 72, 73, 74, 75, 76, 77, 85, 86, 87, 88, 89, 90
 91,
*Elset, elset=__PickedSurf468_S3, internal, instance=B-10-6
  1,  2,  3,  4,  5,  6,  7, 15, 16, 17, 18, 19, 20, 21, 29, 30
 31, 32, 33, 34, 35, 43, 44, 45, 46, 47, 48, 49, 57, 58, 59, 60
 61, 62, 63, 71, 72, 73, 74, 75, 76, 77, 85, 86, 87, 88, 89, 90
 91,
*Elset, elset=__PickedSurf468_S3, internal, instance=B-10-4
  1,  2,  3,  4,  5,  6,  7, 15, 16, 17, 18, 19, 20, 21, 29, 30
 31, 32, 33, 34, 35, 43, 44, 45, 46, 47, 48, 49, 57, 58, 59, 60
 61, 62, 63, 71, 72, 73, 74, 75, 76, 77, 85, 86, 87, 88, 89, 90
 91,
*Elset, elset=__PickedSurf468_S3, internal, instance=B-10-9
  1,  2,  3,  4,  5,  6,  7, 15, 16, 17, 18, 19, 20, 21, 29, 30
 31, 32, 33, 34, 35, 43, 44, 45, 46, 47, 48, 49, 57, 58, 59, 60
 61, 62, 63, 71, 72, 73, 74, 75, 76, 77, 85, 86, 87, 88, 89, 90
 91,
*Elset, elset=__PickedSurf468_S3, internal, instance=B-10-1
  1,  2,  3,  4,  5,  6,  7, 15, 16, 17, 18, 19, 20, 21, 29, 30
 31, 32, 33, 34, 35, 43, 44, 45, 46, 47, 48, 49, 57, 58, 59, 60
 61, 62, 63, 71, 72, 73, 74, 75, 76, 77, 85, 86, 87, 88, 89, 90
 91,
*Elset, elset=__PickedSurf468_S3, internal, instance=B-10-3
  1,  2,  3,  4,  5,  6,  7, 15, 16, 17, 18, 19, 20, 21, 29, 30
 31, 32, 33, 34, 35, 43, 44, 45, 46, 47, 48, 49, 57, 58, 59, 60
 61, 62, 63, 71, 72, 73, 74, 75, 76, 77, 85, 86, 87, 88, 89, 90
 91,
*Elset, elset=__PickedSurf468_S3, internal, instance=B-10-2
  1,  2,  3,  4,  5,  6,  7, 15, 16, 17, 18, 19, 20, 21, 29, 30
 31, 32, 33, 34, 35, 43, 44, 45, 46, 47, 48, 49, 57, 58, 59, 60
 61, 62, 63, 71, 72, 73, 74, 75, 76, 77, 85, 86, 87, 88, 89, 90
 91,
*Elset, elset=__PickedSurf468_S3, internal, instance=B-10-7
  1,  2,  3,  4,  5,  6,  7, 15, 16, 17, 18, 19, 20, 21, 29, 30
 31, 32, 33, 34, 35, 43, 44, 45, 46, 47, 48, 49, 57, 58, 59, 60
 61, 62, 63, 71, 72, 73, 74, 75, 76, 77, 85, 86, 87, 88, 89, 90
 91,
*Elset, elset=__PickedSurf468_S3, internal, instance=B-10-5
  1,  2,  3,  4,  5,  6,  7, 15, 16, 17, 18, 19, 20, 21, 29, 30
 31, 32, 33, 34, 35, 43, 44, 45, 46, 47, 48, 49, 57, 58, 59, 60
 61, 62, 63, 71, 72, 73, 74, 75, 76, 77, 85, 86, 87, 88, 89, 90
 91,
*Surface, type=ELEMENT, name=_PickedSurf468, internal
__PickedSurf468_S3, S3
*Elset, elset=__PickedSurf469_S3, internal, instance=B-9-10
  1,  2,  3,  4,  5,  6,  7, 15, 16, 17, 18, 19, 20, 21, 29, 30
 31, 32, 33, 34, 35, 43, 44, 45, 46, 47, 48, 49
*Elset, elset=__PickedSurf469_S3, internal, instance=B-9-9
  1,  2,  3,  4,  5,  6,  7, 15, 16, 17, 18, 19, 20, 21, 29, 30
 31, 32, 33, 34, 35, 43, 44, 45, 46, 47, 48, 49, 57, 58, 59, 60
 61, 62, 63, 71, 72, 73, 74, 75, 76, 77, 85, 86, 87, 88, 89, 90
 91,
*Elset, elset=__PickedSurf469_S3, internal, instance=B-9-8
  1,  2,  3,  4,  5,  6,  7, 15, 16, 17, 18, 19, 20, 21, 29, 30
 31, 32, 33, 34, 35, 43, 44, 45, 46, 47, 48, 49, 57, 58, 59, 60
 61, 62, 63, 71, 72, 73, 74, 75, 76, 77, 85, 86, 87, 88, 89, 90
 91,
*Elset, elset=__PickedSurf469_S3, internal, instance=B-9-6
  1,  2,  3,  4,  5,  6,  7, 15, 16, 17, 18, 19, 20, 21, 29, 30
 31, 32, 33, 34, 35, 43, 44, 45, 46, 47, 48, 49, 57, 58, 59, 60
 61, 62, 63, 71, 72, 73, 74, 75, 76, 77, 85, 86, 87, 88, 89, 90
 91,
*Elset, elset=__PickedSurf469_S3, internal, instance=B-9-4
  1,  2,  3,  4,  5,  6,  7, 15, 16, 17, 18, 19, 20, 21, 29, 30
 31, 32, 33, 34, 35, 43, 44, 45, 46, 47, 48, 49, 57, 58, 59, 60
 61, 62, 63, 71, 72, 73, 74, 75, 76, 77, 85, 86, 87, 88, 89, 90
 91,
*Elset, elset=__PickedSurf469_S3, internal, instance=B-9-2
  1,  2,  3,  4,  5,  6,  7, 15, 16, 17, 18, 19, 20, 21, 29, 30
 31, 32, 33, 34, 35, 43, 44, 45, 46, 47, 48, 49, 57, 58, 59, 60
 61, 62, 63, 71, 72, 73, 74, 75, 76, 77, 85, 86, 87, 88, 89, 90
 91,
*Elset, elset=__PickedSurf469_S3, internal, instance=B-9-7
  1,  2,  3,  4,  5,  6,  7, 15, 16, 17, 18, 19, 20, 21, 29, 30
 31, 32, 33, 34, 35, 43, 44, 45, 46, 47, 48, 49, 57, 58, 59, 60
 61, 62, 63, 71, 72, 73, 74, 75, 76, 77, 85, 86, 87, 88, 89, 90
 91,
*Elset, elset=__PickedSurf469_S3, internal, instance=B-9-1
  1,  2,  3,  4,  5,  6,  7, 15, 16, 17, 18, 19, 20, 21, 29, 30
 31, 32, 33, 34, 35, 43, 44, 45, 46, 47, 48, 49
*Elset, elset=__PickedSurf469_S3, internal, instance=B-9-5
  1,  2,  3,  4,  5,  6,  7, 15, 16, 17, 18, 19, 20, 21, 29, 30
 31, 32, 33, 34, 35, 43, 44, 45, 46, 47, 48, 49, 57, 58, 59, 60
 61, 62, 63, 71, 72, 73, 74, 75, 76, 77, 85, 86, 87, 88, 89, 90
 91,
*Elset, elset=__PickedSurf469_S3, internal, instance=B-9-3
  1,  2,  3,  4,  5,  6,  7, 15, 16, 17, 18, 19, 20, 21, 29, 30
 31, 32, 33, 34, 35, 43, 44, 45, 46, 47, 48, 49, 57, 58, 59, 60
 61, 62, 63, 71, 72, 73, 74, 75, 76, 77, 85, 86, 87, 88, 89, 90
 91,
*Surface, type=ELEMENT, name=_PickedSurf469, internal
__PickedSurf469_S3, S3
*Elset, elset=__PickedSurf470_S3, internal, instance=B-8-8
  1,  2,  3,  4,  5,  6,  7, 15, 16, 17, 18, 19, 20, 21, 29, 30
 31, 32, 33, 34, 35, 43, 44, 45, 46, 47, 48, 49, 57, 58, 59, 60
 61, 62, 63, 71, 72, 73, 74, 75, 76, 77, 85, 86, 87, 88, 89, 90
 91,
*Elset, elset=__PickedSurf470_S3, internal, instance=B-8-6
  1,  2,  3,  4,  5,  6,  7, 15, 16, 17, 18, 19, 20, 21, 29, 30
 31, 32, 33, 34, 35, 43, 44, 45, 46, 47, 48, 49, 57, 58, 59, 60
 61, 62, 63, 71, 72, 73, 74, 75, 76, 77, 85, 86, 87, 88, 89, 90
 91,
*Elset, elset=__PickedSurf470_S3, internal, instance=B-8-4
  1,  2,  3,  4,  5,  6,  7, 15, 16, 17, 18, 19, 20, 21, 29, 30
 31, 32, 33, 34, 35, 43, 44, 45, 46, 47, 48, 49, 57, 58, 59, 60
 61, 62, 63, 71, 72, 73, 74, 75, 76, 77, 85, 86, 87, 88, 89, 90
 91,
*Elset, elset=__PickedSurf470_S3, internal, instance=B-8-2
  1,  2,  3,  4,  5,  6,  7, 15, 16, 17, 18, 19, 20, 21, 29, 30
 31, 32, 33, 34, 35, 43, 44, 45, 46, 47, 48, 49, 57, 58, 59, 60
 61, 62, 63, 71, 72, 73, 74, 75, 76, 77, 85, 86, 87, 88, 89, 90
 91,
*Elset, elset=__PickedSurf470_S3, internal, instance=B-8-7
  1,  2,  3,  4,  5,  6,  7, 15, 16, 17, 18, 19, 20, 21, 29, 30
 31, 32, 33, 34, 35, 43, 44, 45, 46, 47, 48, 49, 57, 58, 59, 60
 61, 62, 63, 71, 72, 73, 74, 75, 76, 77, 85, 86, 87, 88, 89, 90
 91,
*Elset, elset=__PickedSurf470_S3, internal, instance=B-8-5
  1,  2,  3,  4,  5,  6,  7, 15, 16, 17, 18, 19, 20, 21, 29, 30
 31, 32, 33, 34, 35, 43, 44, 45, 46, 47, 48, 49, 57, 58, 59, 60
 61, 62, 63, 71, 72, 73, 74, 75, 76, 77, 85, 86, 87, 88, 89, 90
 91,
*Elset, elset=__PickedSurf470_S3, internal, instance=B-8-9
  1,  2,  3,  4,  5,  6,  7, 15, 16, 17, 18, 19, 20, 21, 29, 30
 31, 32, 33, 34, 35, 43, 44, 45, 46, 47, 48, 49, 57, 58, 59, 60
 61, 62, 63, 71, 72, 73, 74, 75, 76, 77, 85, 86, 87, 88, 89, 90
 91,
*Elset, elset=__PickedSurf470_S3, internal, instance=B-8-3
  1,  2,  3,  4,  5,  6,  7, 15, 16, 17, 18, 19, 20, 21, 29, 30
 31, 32, 33, 34, 35, 43, 44, 45, 46, 47, 48, 49, 57, 58, 59, 60
 61, 62, 63, 71, 72, 73, 74, 75, 76, 77, 85, 86, 87, 88, 89, 90
 91,
*Elset, elset=__PickedSurf470_S3, internal, instance=B-8-1
  1,  2,  3,  4,  5,  6,  7, 15, 16, 17, 18, 19, 20, 21, 29, 30
 31, 32, 33, 34, 35, 43, 44, 45, 46, 47, 48, 49, 57, 58, 59, 60
 61, 62, 63, 71, 72, 73, 74, 75, 76, 77, 85, 86, 87, 88, 89, 90
 91,
*Surface, type=ELEMENT, name=_PickedSurf470, internal
__PickedSurf470_S3, S3
*Elset, elset=__PickedSurf471_S3, internal, instance=B-7-10
  1,  2,  3,  4,  5,  6,  7, 15, 16, 17, 18, 19, 20, 21, 29, 30
 31, 32, 33, 34, 35, 43, 44, 45, 46, 47, 48, 49
*Elset, elset=__PickedSurf471_S3, internal, instance=B-7-9
  1,  2,  3,  4,  5,  6,  7, 15, 16, 17, 18, 19, 20, 21, 29, 30
 31, 32, 33, 34, 35, 43, 44, 45, 46, 47, 48, 49, 57, 58, 59, 60
 61, 62, 63, 71, 72, 73, 74, 75, 76, 77, 85, 86, 87, 88, 89, 90
 91,
*Elset, elset=__PickedSurf471_S3, internal, instance=B-7-8
  1,  2,  3,  4,  5,  6,  7, 15, 16, 17, 18, 19, 20, 21, 29, 30
 31, 32, 33, 34, 35, 43, 44, 45, 46, 47, 48, 49, 57, 58, 59, 60
 61, 62, 63, 71, 72, 73, 74, 75, 76, 77, 85, 86, 87, 88, 89, 90
 91,
*Elset, elset=__PickedSurf471_S3, internal, instance=B-7-1
  1,  2,  3,  4,  5,  6,  7, 15, 16, 17, 18, 19, 20, 21, 29, 30
 31, 32, 33, 34, 35, 43, 44, 45, 46, 47, 48, 49
*Elset, elset=__PickedSurf471_S3, internal, instance=B-7-5
  1,  2,  3,  4,  5,  6,  7, 15, 16, 17, 18, 19, 20, 21, 29, 30
 31, 32, 33, 34, 35, 43, 44, 45, 46, 47, 48, 49, 57, 58, 59, 60
 61, 62, 63, 71, 72, 73, 74, 75, 76, 77, 85, 86, 87, 88, 89, 90
 91,
*Elset, elset=__PickedSurf471_S3, internal, instance=B-7-3
  1,  2,  3,  4,  5,  6,  7, 15, 16, 17, 18, 19, 20, 21, 29, 30
 31, 32, 33, 34, 35, 43, 44, 45, 46, 47, 48, 49, 57, 58, 59, 60
 61, 62, 63, 71, 72, 73, 74, 75, 76, 77, 85, 86, 87, 88, 89, 90
 91,
*Elset, elset=__PickedSurf471_S3, internal, instance=B-7-6
  1,  2,  3,  4,  5,  6,  7, 15, 16, 17, 18, 19, 20, 21, 29, 30
 31, 32, 33, 34, 35, 43, 44, 45, 46, 47, 48, 49, 57, 58, 59, 60
 61, 62, 63, 71, 72, 73, 74, 75, 76, 77, 85, 86, 87, 88, 89, 90
 91,
*Elset, elset=__PickedSurf471_S3, internal, instance=B-7-2
  1,  2,  3,  4,  5,  6,  7, 15, 16, 17, 18, 19, 20, 21, 29, 30
 31, 32, 33, 34, 35, 43, 44, 45, 46, 47, 48, 49, 57, 58, 59, 60
 61, 62, 63, 71, 72, 73, 74, 75, 76, 77, 85, 86, 87, 88, 89, 90
 91,
*Elset, elset=__PickedSurf471_S3, internal, instance=B-7-7
  1,  2,  3,  4,  5,  6,  7, 15, 16, 17, 18, 19, 20, 21, 29, 30
 31, 32, 33, 34, 35, 43, 44, 45, 46, 47, 48, 49, 57, 58, 59, 60
 61, 62, 63, 71, 72, 73, 74, 75, 76, 77, 85, 86, 87, 88, 89, 90
 91,
*Elset, elset=__PickedSurf471_S3, internal, instance=B-7-4
  1,  2,  3,  4,  5,  6,  7, 15, 16, 17, 18, 19, 20, 21, 29, 30
 31, 32, 33, 34, 35, 43, 44, 45, 46, 47, 48, 49, 57, 58, 59, 60
 61, 62, 63, 71, 72, 73, 74, 75, 76, 77, 85, 86, 87, 88, 89, 90
 91,
*Surface, type=ELEMENT, name=_PickedSurf471, internal
__PickedSurf471_S3, S3
*Elset, elset=__PickedSurf472_S3, internal, instance=B-6-8
  1,  2,  3,  4,  5,  6,  7, 15, 16, 17, 18, 19, 20, 21, 29, 30
 31, 32, 33, 34, 35, 43, 44, 45, 46, 47, 48, 49, 57, 58, 59, 60
 61, 62, 63, 71, 72, 73, 74, 75, 76, 77, 85, 86, 87, 88, 89, 90
 91,
*Elset, elset=__PickedSurf472_S3, internal, instance=B-6-6
  1,  2,  3,  4,  5,  6,  7, 15, 16, 17, 18, 19, 20, 21, 29, 30
 31, 32, 33, 34, 35, 43, 44, 45, 46, 47, 48, 49, 57, 58, 59, 60
 61, 62, 63, 71, 72, 73, 74, 75, 76, 77, 85, 86, 87, 88, 89, 90
 91,
*Elset, elset=__PickedSurf472_S3, internal, instance=B-6-4
  1,  2,  3,  4,  5,  6,  7, 15, 16, 17, 18, 19, 20, 21, 29, 30
 31, 32, 33, 34, 35, 43, 44, 45, 46, 47, 48, 49, 57, 58, 59, 60
 61, 62, 63, 71, 72, 73, 74, 75, 76, 77, 85, 86, 87, 88, 89, 90
 91,
*Elset, elset=__PickedSurf472_S3, internal, instance=B-6-2
  1,  2,  3,  4,  5,  6,  7, 15, 16, 17, 18, 19, 20, 21, 29, 30
 31, 32, 33, 34, 35, 43, 44, 45, 46, 47, 48, 49, 57, 58, 59, 60
 61, 62, 63, 71, 72, 73, 74, 75, 76, 77, 85, 86, 87, 88, 89, 90
 91,
*Elset, elset=__PickedSurf472_S3, internal, instance=B-6-7
  1,  2,  3,  4,  5,  6,  7, 15, 16, 17, 18, 19, 20, 21, 29, 30
 31, 32, 33, 34, 35, 43, 44, 45, 46, 47, 48, 49, 57, 58, 59, 60
 61, 62, 63, 71, 72, 73, 74, 75, 76, 77, 85, 86, 87, 88, 89, 90
 91,
*Elset, elset=__PickedSurf472_S3, internal, instance=B-6-5
  1,  2,  3,  4,  5,  6,  7, 15, 16, 17, 18, 19, 20, 21, 29, 30
 31, 32, 33, 34, 35, 43, 44, 45, 46, 47, 48, 49, 57, 58, 59, 60
 61, 62, 63, 71, 72, 73, 74, 75, 76, 77, 85, 86, 87, 88, 89, 90
 91,
*Elset, elset=__PickedSurf472_S3, internal, instance=B-6-9
  1,  2,  3,  4,  5,  6,  7, 15, 16, 17, 18, 19, 20, 21, 29, 30
 31, 32, 33, 34, 35, 43, 44, 45, 46, 47, 48, 49, 57, 58, 59, 60
 61, 62, 63, 71, 72, 73, 74, 75, 76, 77, 85, 86, 87, 88, 89, 90
 91,
*Elset, elset=__PickedSurf472_S3, internal, instance=B-6-3
  1,  2,  3,  4,  5,  6,  7, 15, 16, 17, 18, 19, 20, 21, 29, 30
 31, 32, 33, 34, 35, 43, 44, 45, 46, 47, 48, 49, 57, 58, 59, 60
 61, 62, 63, 71, 72, 73, 74, 75, 76, 77, 85, 86, 87, 88, 89, 90
 91,
*Elset, elset=__PickedSurf472_S3, internal, instance=B-6-1
  1,  2,  3,  4,  5,  6,  7, 15, 16, 17, 18, 19, 20, 21, 29, 30
 31, 32, 33, 34, 35, 43, 44, 45, 46, 47, 48, 49, 57, 58, 59, 60
 61, 62, 63, 71, 72, 73, 74, 75, 76, 77, 85, 86, 87, 88, 89, 90
 91,
*Surface, type=ELEMENT, name=_PickedSurf472, internal
__PickedSurf472_S3, S3
*Elset, elset=__PickedSurf473_S3, internal, instance=B-5-10
  1,  2,  3,  4,  5,  6,  7, 15, 16, 17, 18, 19, 20, 21, 29, 30
 31, 32, 33, 34, 35, 43, 44, 45, 46, 47, 48, 49
*Elset, elset=__PickedSurf473_S3, internal, instance=B-5-9
  1,  2,  3,  4,  5,  6,  7, 15, 16, 17, 18, 19, 20, 21, 29, 30
 31, 32, 33, 34, 35, 43, 44, 45, 46, 47, 48, 49, 57, 58, 59, 60
 61, 62, 63, 71, 72, 73, 74, 75, 76, 77, 85, 86, 87, 88, 89, 90
 91,
*Elset, elset=__PickedSurf473_S3, internal, instance=B-5-8
  1,  2,  3,  4,  5,  6,  7, 15, 16, 17, 18, 19, 20, 21, 29, 30
 31, 32, 33, 34, 35, 43, 44, 45, 46, 47, 48, 49, 57, 58, 59, 60
 61, 62, 63, 71, 72, 73, 74, 75, 76, 77, 85, 86, 87, 88, 89, 90
 91,
*Elset, elset=__PickedSurf473_S3, internal, instance=B-5-1
  1,  2,  3,  4,  5,  6,  7, 15, 16, 17, 18, 19, 20, 21, 29, 30
 31, 32, 33, 34, 35, 43, 44, 45, 46, 47, 48, 49
*Elset, elset=__PickedSurf473_S3, internal, instance=B-5-5
  1,  2,  3,  4,  5,  6,  7, 15, 16, 17, 18, 19, 20, 21, 29, 30
 31, 32, 33, 34, 35, 43, 44, 45, 46, 47, 48, 49, 57, 58, 59, 60
 61, 62, 63, 71, 72, 73, 74, 75, 76, 77, 85, 86, 87, 88, 89, 90
 91,
*Elset, elset=__PickedSurf473_S3, internal, instance=B-5-3
  1,  2,  3,  4,  5,  6,  7, 15, 16, 17, 18, 19, 20, 21, 29, 30
 31, 32, 33, 34, 35, 43, 44, 45, 46, 47, 48, 49, 57, 58, 59, 60
 61, 62, 63, 71, 72, 73, 74, 75, 76, 77, 85, 86, 87, 88, 89, 90
 91,
*Elset, elset=__PickedSurf473_S3, internal, instance=B-5-6
  1,  2,  3,  4,  5,  6,  7, 15, 16, 17, 18, 19, 20, 21, 29, 30
 31, 32, 33, 34, 35, 43, 44, 45, 46, 47, 48, 49, 57, 58, 59, 60
 61, 62, 63, 71, 72, 73, 74, 75, 76, 77, 85, 86, 87, 88, 89, 90
 91,
*Elset, elset=__PickedSurf473_S3, internal, instance=B-5-2
  1,  2,  3,  4,  5,  6,  7, 15, 16, 17, 18, 19, 20, 21, 29, 30
 31, 32, 33, 34, 35, 43, 44, 45, 46, 47, 48, 49, 57, 58, 59, 60
 61, 62, 63, 71, 72, 73, 74, 75, 76, 77, 85, 86, 87, 88, 89, 90
 91,
*Elset, elset=__PickedSurf473_S3, internal, instance=B-5-7
  1,  2,  3,  4,  5,  6,  7, 15, 16, 17, 18, 19, 20, 21, 29, 30
 31, 32, 33, 34, 35, 43, 44, 45, 46, 47, 48, 49, 57, 58, 59, 60
 61, 62, 63, 71, 72, 73, 74, 75, 76, 77, 85, 86, 87, 88, 89, 90
 91,
*Elset, elset=__PickedSurf473_S3, internal, instance=B-5-4
  1,  2,  3,  4,  5,  6,  7, 15, 16, 17, 18, 19, 20, 21, 29, 30
 31, 32, 33, 34, 35, 43, 44, 45, 46, 47, 48, 49, 57, 58, 59, 60
 61, 62, 63, 71, 72, 73, 74, 75, 76, 77, 85, 86, 87, 88, 89, 90
 91,
*Surface, type=ELEMENT, name=_PickedSurf473, internal
__PickedSurf473_S3, S3
*Elset, elset=__PickedSurf474_S3, internal, instance=B-4-8
  1,  2,  3,  4,  5,  6,  7, 15, 16, 17, 18, 19, 20, 21, 29, 30
 31, 32, 33, 34, 35, 43, 44, 45, 46, 47, 48, 49, 57, 58, 59, 60
 61, 62, 63, 71, 72, 73, 74, 75, 76, 77, 85, 86, 87, 88, 89, 90
 91,
*Elset, elset=__PickedSurf474_S3, internal, instance=B-4-6
  1,  2,  3,  4,  5,  6,  7, 15, 16, 17, 18, 19, 20, 21, 29, 30
 31, 32, 33, 34, 35, 43, 44, 45, 46, 47, 48, 49, 57, 58, 59, 60
 61, 62, 63, 71, 72, 73, 74, 75, 76, 77, 85, 86, 87, 88, 89, 90
 91,
*Elset, elset=__PickedSurf474_S3, internal, instance=B-4-4
  1,  2,  3,  4,  5,  6,  7, 15, 16, 17, 18, 19, 20, 21, 29, 30
 31, 32, 33, 34, 35, 43, 44, 45, 46, 47, 48, 49, 57, 58, 59, 60
 61, 62, 63, 71, 72, 73, 74, 75, 76, 77, 85, 86, 87, 88, 89, 90
 91,
*Elset, elset=__PickedSurf474_S3, internal, instance=B-4-9
  1,  2,  3,  4,  5,  6,  7, 15, 16, 17, 18, 19, 20, 21, 29, 30
 31, 32, 33, 34, 35, 43, 44, 45, 46, 47, 48, 49, 57, 58, 59, 60
 61, 62, 63, 71, 72, 73, 74, 75, 76, 77, 85, 86, 87, 88, 89, 90
 91,
*Elset, elset=__PickedSurf474_S3, internal, instance=B-4-3
  1,  2,  3,  4,  5,  6,  7, 15, 16, 17, 18, 19, 20, 21, 29, 30
 31, 32, 33, 34, 35, 43, 44, 45, 46, 47, 48, 49, 57, 58, 59, 60
 61, 62, 63, 71, 72, 73, 74, 75, 76, 77, 85, 86, 87, 88, 89, 90
 91,
*Elset, elset=__PickedSurf474_S3, internal, instance=B-4-1
  1,  2,  3,  4,  5,  6,  7, 15, 16, 17, 18, 19, 20, 21, 29, 30
 31, 32, 33, 34, 35, 43, 44, 45, 46, 47, 48, 49, 57, 58, 59, 60
 61, 62, 63, 71, 72, 73, 74, 75, 76, 77, 85, 86, 87, 88, 89, 90
 91,
*Elset, elset=__PickedSurf474_S3, internal, instance=B-4-2
  1,  2,  3,  4,  5,  6,  7, 15, 16, 17, 18, 19, 20, 21, 29, 30
 31, 32, 33, 34, 35, 43, 44, 45, 46, 47, 48, 49, 57, 58, 59, 60
 61, 62, 63, 71, 72, 73, 74, 75, 76, 77, 85, 86, 87, 88, 89, 90
 91,
*Elset, elset=__PickedSurf474_S3, internal, instance=B-4-5
  1,  2,  3,  4,  5,  6,  7, 15, 16, 17, 18, 19, 20, 21, 29, 30
 31, 32, 33, 34, 35, 43, 44, 45, 46, 47, 48, 49, 57, 58, 59, 60
 61, 62, 63, 71, 72, 73, 74, 75, 76, 77, 85, 86, 87, 88, 89, 90
 91,
*Elset, elset=__PickedSurf474_S3, internal, instance=B-4-7
  1,  2,  3,  4,  5,  6,  7, 15, 16, 17, 18, 19, 20, 21, 29, 30
 31, 32, 33, 34, 35, 43, 44, 45, 46, 47, 48, 49, 57, 58, 59, 60
 61, 62, 63, 71, 72, 73, 74, 75, 76, 77, 85, 86, 87, 88, 89, 90
 91,
*Surface, type=ELEMENT, name=_PickedSurf474, internal
__PickedSurf474_S3, S3
*Elset, elset=__PickedSurf475_S3, internal, instance=B-3-10
  1,  2,  3,  4,  5,  6,  7, 15, 16, 17, 18, 19, 20, 21, 29, 30
 31, 32, 33, 34, 35, 43, 44, 45, 46, 47, 48, 49
*Elset, elset=__PickedSurf475_S3, internal, instance=B-3-9
  1,  2,  3,  4,  5,  6,  7, 15, 16, 17, 18, 19, 20, 21, 29, 30
 31, 32, 33, 34, 35, 43, 44, 45, 46, 47, 48, 49, 57, 58, 59, 60
 61, 62, 63, 71, 72, 73, 74, 75, 76, 77, 85, 86, 87, 88, 89, 90
 91,
*Elset, elset=__PickedSurf475_S3, internal, instance=B-3-8
  1,  2,  3,  4,  5,  6,  7, 15, 16, 17, 18, 19, 20, 21, 29, 30
 31, 32, 33, 34, 35, 43, 44, 45, 46, 47, 48, 49, 57, 58, 59, 60
 61, 62, 63, 71, 72, 73, 74, 75, 76, 77, 85, 86, 87, 88, 89, 90
 91,
*Elset, elset=__PickedSurf475_S3, internal, instance=B-3-6
  1,  2,  3,  4,  5,  6,  7, 15, 16, 17, 18, 19, 20, 21, 29, 30
 31, 32, 33, 34, 35, 43, 44, 45, 46, 47, 48, 49, 57, 58, 59, 60
 61, 62, 63, 71, 72, 73, 74, 75, 76, 77, 85, 86, 87, 88, 89, 90
 91,
*Elset, elset=__PickedSurf475_S3, internal, instance=B-3-2
  1,  2,  3,  4,  5,  6,  7, 15, 16, 17, 18, 19, 20, 21, 29, 30
 31, 32, 33, 34, 35, 43, 44, 45, 46, 47, 48, 49, 57, 58, 59, 60
 61, 62, 63, 71, 72, 73, 74, 75, 76, 77, 85, 86, 87, 88, 89, 90
 91,
*Elset, elset=__PickedSurf475_S3, internal, instance=B-3-7
  1,  2,  3,  4,  5,  6,  7, 15, 16, 17, 18, 19, 20, 21, 29, 30
 31, 32, 33, 34, 35, 43, 44, 45, 46, 47, 48, 49, 57, 58, 59, 60
 61, 62, 63, 71, 72, 73, 74, 75, 76, 77, 85, 86, 87, 88, 89, 90
 91,
*Elset, elset=__PickedSurf475_S3, internal, instance=B-3-4
  1,  2,  3,  4,  5,  6,  7, 15, 16, 17, 18, 19, 20, 21, 29, 30
 31, 32, 33, 34, 35, 43, 44, 45, 46, 47, 48, 49, 57, 58, 59, 60
 61, 62, 63, 71, 72, 73, 74, 75, 76, 77, 85, 86, 87, 88, 89, 90
 91,
*Elset, elset=__PickedSurf475_S3, internal, instance=B-3-1
  1,  2,  3,  4,  5,  6,  7, 15, 16, 17, 18, 19, 20, 21, 29, 30
 31, 32, 33, 34, 35, 43, 44, 45, 46, 47, 48, 49
*Elset, elset=__PickedSurf475_S3, internal, instance=B-3-3
  1,  2,  3,  4,  5,  6,  7, 15, 16, 17, 18, 19, 20, 21, 29, 30
 31, 32, 33, 34, 35, 43, 44, 45, 46, 47, 48, 49, 57, 58, 59, 60
 61, 62, 63, 71, 72, 73, 74, 75, 76, 77, 85, 86, 87, 88, 89, 90
 91,
*Elset, elset=__PickedSurf475_S3, internal, instance=B-3-5
  1,  2,  3,  4,  5,  6,  7, 15, 16, 17, 18, 19, 20, 21, 29, 30
 31, 32, 33, 34, 35, 43, 44, 45, 46, 47, 48, 49, 57, 58, 59, 60
 61, 62, 63, 71, 72, 73, 74, 75, 76, 77, 85, 86, 87, 88, 89, 90
 91,
*Surface, type=ELEMENT, name=_PickedSurf475, internal
__PickedSurf475_S3, S3
*Elset, elset=__PickedSurf476_S3, internal, instance=B-2-1
  1,  2,  3,  4,  5,  6,  7, 15, 16, 17, 18, 19, 20, 21, 29, 30
 31, 32, 33, 34, 35, 43, 44, 45, 46, 47, 48, 49, 57, 58, 59, 60
 61, 62, 63, 71, 72, 73, 74, 75, 76, 77, 85, 86, 87, 88, 89, 90
 91,
*Elset, elset=__PickedSurf476_S3, internal, instance=B-2-2
  1,  2,  3,  4,  5,  6,  7, 15, 16, 17, 18, 19, 20, 21, 29, 30
 31, 32, 33, 34, 35, 43, 44, 45, 46, 47, 48, 49, 57, 58, 59, 60
 61, 62, 63, 71, 72, 73, 74, 75, 76, 77, 85, 86, 87, 88, 89, 90
 91,
*Elset, elset=__PickedSurf476_S3, internal, instance=B-2-3
  1,  2,  3,  4,  5,  6,  7, 15, 16, 17, 18, 19, 20, 21, 29, 30
 31, 32, 33, 34, 35, 43, 44, 45, 46, 47, 48, 49, 57, 58, 59, 60
 61, 62, 63, 71, 72, 73, 74, 75, 76, 77, 85, 86, 87, 88, 89, 90
 91,
*Elset, elset=__PickedSurf476_S3, internal, instance=B-2-7
  1,  2,  3,  4,  5,  6,  7, 15, 16, 17, 18, 19, 20, 21, 29, 30
 31, 32, 33, 34, 35, 43, 44, 45, 46, 47, 48, 49, 57, 58, 59, 60
 61, 62, 63, 71, 72, 73, 74, 75, 76, 77, 85, 86, 87, 88, 89, 90
 91,
*Elset, elset=__PickedSurf476_S3, internal, instance=B-2-5
  1,  2,  3,  4,  5,  6,  7, 15, 16, 17, 18, 19, 20, 21, 29, 30
 31, 32, 33, 34, 35, 43, 44, 45, 46, 47, 48, 49, 57, 58, 59, 60
 61, 62, 63, 71, 72, 73, 74, 75, 76, 77, 85, 86, 87, 88, 89, 90
 91,
*Elset, elset=__PickedSurf476_S3, internal, instance=B-2-9
  1,  2,  3,  4,  5,  6,  7, 15, 16, 17, 18, 19, 20, 21, 29, 30
 31, 32, 33, 34, 35, 43, 44, 45, 46, 47, 48, 49, 57, 58, 59, 60
 61, 62, 63, 71, 72, 73, 74, 75, 76, 77, 85, 86, 87, 88, 89, 90
 91,
*Elset, elset=__PickedSurf476_S3, internal, instance=B-2-4
  1,  2,  3,  4,  5,  6,  7, 15, 16, 17, 18, 19, 20, 21, 29, 30
 31, 32, 33, 34, 35, 43, 44, 45, 46, 47, 48, 49, 57, 58, 59, 60
 61, 62, 63, 71, 72, 73, 74, 75, 76, 77, 85, 86, 87, 88, 89, 90
 91,
*Elset, elset=__PickedSurf476_S3, internal, instance=B-2-8
  1,  2,  3,  4,  5,  6,  7, 15, 16, 17, 18, 19, 20, 21, 29, 30
 31, 32, 33, 34, 35, 43, 44, 45, 46, 47, 48, 49, 57, 58, 59, 60
 61, 62, 63, 71, 72, 73, 74, 75, 76, 77, 85, 86, 87, 88, 89, 90
 91,
*Elset, elset=__PickedSurf476_S3, internal, instance=B-2-6
  1,  2,  3,  4,  5,  6,  7, 15, 16, 17, 18, 19, 20, 21, 29, 30
 31, 32, 33, 34, 35, 43, 44, 45, 46, 47, 48, 49, 57, 58, 59, 60
 61, 62, 63, 71, 72, 73, 74, 75, 76, 77, 85, 86, 87, 88, 89, 90
 91,
*Surface, type=ELEMENT, name=_PickedSurf476, internal
__PickedSurf476_S3, S3
*Elset, elset=__PickedSurf477_S3, internal, instance=B-1-10
  1,  2,  3,  4,  5,  6,  7, 15, 16, 17, 18, 19, 20, 21, 29, 30
 31, 32, 33, 34, 35, 43, 44, 45, 46, 47, 48, 49
*Elset, elset=__PickedSurf477_S3, internal, instance=B-1-9
  1,  2,  3,  4,  5,  6,  7, 15, 16, 17, 18, 19, 20, 21, 29, 30
 31, 32, 33, 34, 35, 43, 44, 45, 46, 47, 48, 49, 57, 58, 59, 60
 61, 62, 63, 71, 72, 73, 74, 75, 76, 77, 85, 86, 87, 88, 89, 90
 91,
*Elset, elset=__PickedSurf477_S3, internal, instance=B-1-8
  1,  2,  3,  4,  5,  6,  7, 15, 16, 17, 18, 19, 20, 21, 29, 30
 31, 32, 33, 34, 35, 43, 44, 45, 46, 47, 48, 49, 57, 58, 59, 60
 61, 62, 63, 71, 72, 73, 74, 75, 76, 77, 85, 86, 87, 88, 89, 90
 91,
*Elset, elset=__PickedSurf477_S3, internal, instance=B-1-6
  1,  2,  3,  4,  5,  6,  7, 15, 16, 17, 18, 19, 20, 21, 29, 30
 31, 32, 33, 34, 35, 43, 44, 45, 46, 47, 48, 49, 57, 58, 59, 60
 61, 62, 63, 71, 72, 73, 74, 75, 76, 77, 85, 86, 87, 88, 89, 90
 91,
*Elset, elset=__PickedSurf477_S3, internal, instance=B-1-2
  1,  2,  3,  4,  5,  6,  7, 15, 16, 17, 18, 19, 20, 21, 29, 30
 31, 32, 33, 34, 35, 43, 44, 45, 46, 47, 48, 49, 57, 58, 59, 60
 61, 62, 63, 71, 72, 73, 74, 75, 76, 77, 85, 86, 87, 88, 89, 90
 91,
*Elset, elset=__PickedSurf477_S3, internal, instance=B-1-4
  1,  2,  3,  4,  5,  6,  7, 15, 16, 17, 18, 19, 20, 21, 29, 30
 31, 32, 33, 34, 35, 43, 44, 45, 46, 47, 48, 49, 57, 58, 59, 60
 61, 62, 63, 71, 72, 73, 74, 75, 76, 77, 85, 86, 87, 88, 89, 90
 91,
*Elset, elset=__PickedSurf477_S3, internal, instance=B-1-7
  1,  2,  3,  4,  5,  6,  7, 15, 16, 17, 18, 19, 20, 21, 29, 30
 31, 32, 33, 34, 35, 43, 44, 45, 46, 47, 48, 49, 57, 58, 59, 60
 61, 62, 63, 71, 72, 73, 74, 75, 76, 77, 85, 86, 87, 88, 89, 90
 91,
*Elset, elset=__PickedSurf477_S3, internal, instance=B-1-5
  1,  2,  3,  4,  5,  6,  7, 15, 16, 17, 18, 19, 20, 21, 29, 30
 31, 32, 33, 34, 35, 43, 44, 45, 46, 47, 48, 49, 57, 58, 59, 60
 61, 62, 63, 71, 72, 73, 74, 75, 76, 77, 85, 86, 87, 88, 89, 90
 91,
*Elset, elset=__PickedSurf477_S3, internal, instance=B-1-1
  1,  2,  3,  4,  5,  6,  7, 15, 16, 17, 18, 19, 20, 21, 29, 30
 31, 32, 33, 34, 35, 43, 44, 45, 46, 47, 48, 49
*Elset, elset=__PickedSurf477_S3, internal, instance=B-1-3
  1,  2,  3,  4,  5,  6,  7, 15, 16, 17, 18, 19, 20, 21, 29, 30
 31, 32, 33, 34, 35, 43, 44, 45, 46, 47, 48, 49, 57, 58, 59, 60
 61, 62, 63, 71, 72, 73, 74, 75, 76, 77, 85, 86, 87, 88, 89, 90
 91,
*Surface, type=ELEMENT, name=_PickedSurf477, internal
__PickedSurf477_S3, S3
*Nset, nset="_T-Datum csys-1", internal
_PickedSet484, 
*Transform, nset="_T-Datum csys-1"
          1.,           0.,           0.,           0.,           1.,           0.
** Constraint: Constraint-1
*Rigid Body, ref node=_PickedSet481, analytical surface=Dike.Surf-2
** Constraint: Constraint-2
*Rigid Body, ref node=_PickedSet482, analytical surface=Wall-1.Surf-Wall
** Constraint: Constraint-4
*Rigid Body, ref node=_PickedSet485, analytical surface=Wall-2.Surf-Wall
*End Assembly
*AMPLITUDE, NAME=ROW1
0.000, 0.00000, 0.010, 66.72740, 0.020, 133.45480, 0.030, 200.18220
0.040, 266.90961, 0.050, 333.63701, 0.060, 316.95516, 0.070, 300.27331
0.080, 283.59146, 0.090, 266.90961, 0.100, 250.22776, 0.110, 233.54591
0.120, 216.86406, 0.130, 200.18220, 0.140, 183.50035, 0.150, 166.81850
0.160, 150.13665, 0.170, 133.45480, 0.180, 116.77295, 0.190, 100.09110
0.200, 83.40925, 0.210, 66.72740, 0.220, 50.04555, 0.230, 33.36370
0.240, 16.68185, 0.250, 0.00000, 0.260, 0.00000, 0.270, 0.00000
0.280, 0.00000, 0.290, 0.00000, 0.300, 0.00000, 0.310, 0.00000
0.320, 0.00000, 0.330, 0.00000, 0.340, 0.00000, 0.350, 0.00000
0.360, 0.00000, 0.370, 0.00000, 0.380, 0.00000, 0.390, 0.00000
0.400, 0.00000, 0.410, 0.00000, 0.420, 0.00000, 0.430, 0.00000
0.440, 0.00000, 0.450, 0.00000, 0.460, 0.00000, 0.470, 0.00000
0.480, 0.00000, 0.490, 0.00000, 0.500, 0.00000, 0.510, 0.00000
0.520, 0.00000, 0.530, 0.00000, 0.540, 0.00000, 0.550, 0.00000
0.560, 0.00000, 0.570, 0.00000, 0.580, 0.00000, 0.590, 0.00000
0.600, 0.00000, 0.610, 0.00000, 0.620, 0.00000, 0.630, 0.00000
0.640, 0.00000, 0.650, 0.00000, 0.660, 0.00000, 0.670, 0.00000
0.680, 0.00000, 0.690, 0.00000, 0.700, 0.00000, 0.710, 0.00000
0.720, 0.00000, 0.730, 0.00000, 0.740, 0.00000, 0.750, 0.00000
0.760, 0.00000, 0.770, 0.00000, 0.780, 0.00000, 0.790, 0.00000
0.800, 0.00000, 0.810, 0.00000, 0.820, 0.00000, 0.830, 0.00000
0.840, 0.00000, 0.850, 0.00000, 0.860, 0.00000, 0.870, 0.00000
0.880, 0.00000, 0.890, 0.00000, 0.900, 0.00000, 0.910, 0.00000
0.920, 0.00000, 0.930, 0.00000, 0.940, 0.00000, 0.950, 0.00000
0.960, 0.00000, 0.970, 0.00000, 0.980, 0.00000, 0.990, 0.00000
1.000, 0.00000, 1.010, 0.00000, 1.020, 0.00000, 1.030, 0.00000
1.040, 0.00000, 1.050, 0.00000, 1.060, 0.00000, 1.070, 0.00000
1.080, 0.00000, 1.090, 0.00000, 1.100, 0.00000, 1.110, 0.00000
1.120, 0.00000, 1.130, 0.00000, 1.140, 0.00000, 1.150, 0.00000
1.160, 0.00000, 1.170, 0.00000, 1.180, 0.00000, 1.190, 0.00000
1.200, 0.00000, 1.210, 0.00000, 1.220, 0.00000, 1.230, 0.00000
1.240, 0.00000, 1.250, 0.00000, 1.260, 0.00000, 1.270, 0.00000
1.280, 0.00000, 1.290, 0.00000, 1.300, 0.00000, 1.310, 0.00000
1.320, 0.00000, 1.330, 0.00000, 1.340, 0.00000, 1.350, 0.00000
1.360, 0.00000, 1.370, 0.00000, 1.380, 0.00000, 1.390, 0.00000
1.400, 0.00000, 1.410, 0.00000, 1.420, 0.00000, 1.430, 0.00000
1.440, 0.00000, 1.450, 0.00000, 1.460, 0.00000, 1.470, 0.00000
1.480, 0.00000, 1.490, 0.00000, 1.500, 0.00000, 1.510, 0.00000
1.520, 0.00000, 1.530, 0.00000, 1.540, 0.00000, 1.550, 0.00000
1.560, 0.00000, 1.570, 0.00000, 1.580, 0.00000, 1.590, 0.00000
1.600, 0.00000, 1.610, 0.00000, 1.620, 0.00000, 1.630, 0.00000
1.640, 0.00000, 1.650, 0.00000, 1.660, 0.00000, 1.670, 0.00000
1.680, 0.00000, 1.690, 0.00000, 1.700, 0.00000, 1.710, 0.00000
1.720, 0.00000, 1.730, 0.00000, 1.740, 0.00000, 1.750, 0.00000
1.760, 0.00000, 1.770, 0.00000, 1.780, 0.00000, 1.790, 0.00000
1.800, 0.00000, 1.810, 0.00000, 1.820, 0.00000, 1.830, 0.00000
1.840, 0.00000, 1.850, 0.00000, 1.860, 0.00000, 1.870, 0.00000
1.880, 0.00000, 1.890, 0.00000, 1.900, 0.00000, 1.910, 0.00000
1.920, 0.00000, 1.930, 0.00000, 1.940, 0.00000, 1.950, 0.00000
1.960, 0.00000, 1.970, 0.00000, 1.980, 0.00000, 1.990, 0.00000
2.000, 0.00000, 2.010, 48.23748, 2.020, 96.47495, 2.030, 144.71243
2.040, 192.94991, 2.050, 241.18739, 2.060, 229.12802, 2.070, 217.06865
2.080, 205.00928, 2.090, 192.94991, 2.100, 180.89054, 2.110, 168.83117
2.120, 156.77180, 2.130, 144.71243, 2.140, 132.65306, 2.150, 120.59369
2.160, 108.53432, 2.170, 96.47495, 2.180, 84.41558, 2.190, 72.35622
2.200, 60.29685, 2.210, 48.23748, 2.220, 36.17811, 2.230, 24.11874
2.240, 12.05937, 2.250, 0.00000, 2.260, 0.00000, 2.270, 0.00000
2.280, 0.00000, 2.290, 0.00000, 2.300, 0.00000, 2.310, 0.00000
2.320, 0.00000, 2.330, 0.00000, 2.340, 0.00000, 2.350, 0.00000
2.360, 0.00000, 2.370, 0.00000, 2.380, 0.00000, 2.390, 0.00000
2.400, 0.00000, 2.410, 0.00000, 2.420, 0.00000, 2.430, 0.00000
2.440, 0.00000, 2.450, 0.00000, 2.460, 0.00000, 2.470, 0.00000
2.480, 0.00000, 2.490, 0.00000, 2.500, 0.00000, 2.510, 0.00000
2.520, 0.00000, 2.530, 0.00000, 2.540, 0.00000, 2.550, 0.00000
2.560, 0.00000, 2.570, 0.00000, 2.580, 0.00000, 2.590, 0.00000
2.600, 0.00000, 2.610, 0.00000, 2.620, 0.00000, 2.630, 0.00000
2.640, 0.00000, 2.650, 0.00000, 2.660, 0.00000, 2.670, 0.00000
2.680, 0.00000, 2.690, 0.00000, 2.700, 0.00000, 2.710, 0.00000
2.720, 0.00000, 2.730, 0.00000, 2.740, 0.00000, 2.750, 0.00000
2.760, 0.00000, 2.770, 0.00000, 2.780, 0.00000, 2.790, 0.00000
2.800, 0.00000, 2.810, 0.00000, 2.820, 0.00000, 2.830, 0.00000
2.840, 0.00000, 2.850, 0.00000, 2.860, 0.00000, 2.870, 0.00000
2.880, 0.00000, 2.890, 0.00000, 2.900, 0.00000, 2.910, 0.00000
2.920, 0.00000, 2.930, 0.00000, 2.940, 0.00000, 2.950, 0.00000
2.960, 0.00000, 2.970, 0.00000, 2.980, 0.00000, 2.990, 0.00000
3.000, 0.00000, 3.010, 0.00000, 3.020, 0.00000, 3.030, 0.00000
3.040, 0.00000, 3.050, 0.00000, 3.060, 0.00000, 3.070, 0.00000
3.080, 0.00000, 3.090, 0.00000, 3.100, 0.00000, 3.110, 0.00000
3.120, 0.00000, 3.130, 0.00000, 3.140, 0.00000, 3.150, 0.00000
3.160, 0.00000, 3.170, 0.00000, 3.180, 0.00000, 3.190, 0.00000
3.200, 0.00000, 3.210, 0.00000, 3.220, 0.00000, 3.230, 0.00000
3.240, 0.00000, 3.250, 0.00000, 3.260, 0.00000, 3.270, 0.00000
3.280, 0.00000, 3.290, 0.00000, 3.300, 0.00000, 3.310, 0.00000
3.320, 0.00000, 3.330, 0.00000, 3.340, 0.00000, 3.350, 0.00000
3.360, 0.00000, 3.370, 0.00000, 3.380, 0.00000, 3.390, 0.00000
3.400, 0.00000, 3.410, 0.00000, 3.420, 0.00000, 3.430, 0.00000
3.440, 0.00000, 3.450, 0.00000, 3.460, 0.00000, 3.470, 0.00000
3.480, 0.00000, 3.490, 0.00000, 3.500, 0.00000, 3.510, 0.00000
3.520, 0.00000, 3.530, 0.00000, 3.540, 0.00000, 3.550, 0.00000
3.560, 0.00000, 3.570, 0.00000, 3.580, 0.00000, 3.590, 0.00000
3.600, 0.00000, 3.610, 0.00000, 3.620, 0.00000, 3.630, 0.00000
3.640, 0.00000, 3.650, 0.00000, 3.660, 0.00000, 3.670, 0.00000
3.680, 0.00000, 3.690, 0.00000, 3.700, 0.00000, 3.710, 0.00000
3.720, 0.00000, 3.730, 0.00000, 3.740, 0.00000, 3.750, 0.00000
3.760, 0.00000, 3.770, 0.00000, 3.780, 0.00000, 3.790, 0.00000
3.800, 0.00000, 3.810, 0.00000, 3.820, 0.00000, 3.830, 0.00000
3.840, 0.00000, 3.850, 0.00000, 3.860, 0.00000, 3.870, 0.00000
3.880, 0.00000, 3.890, 0.00000, 3.900, 0.00000, 3.910, 0.00000
3.920, 0.00000, 3.930, 0.00000, 3.940, 0.00000, 3.950, 0.00000
3.960, 0.00000, 3.970, 0.00000, 3.980, 0.00000, 3.990, 0.00000
4.000, 0.00000, 4.010, 39.52870, 4.020, 79.05740, 4.030, 118.58611
4.040, 158.11481, 4.050, 197.64351, 4.060, 187.76133, 4.070, 177.87916
4.080, 167.99698, 4.090, 158.11481, 4.100, 148.23263, 4.110, 138.35046
4.120, 128.46828, 4.130, 118.58611, 4.140, 108.70393, 4.150, 98.82175
4.160, 88.93958, 4.170, 79.05740, 4.180, 69.17523, 4.190, 59.29305
4.200, 49.41088, 4.210, 39.52870, 4.220, 29.64653, 4.230, 19.76435
4.240, 9.88218, 4.250, 0.00000, 4.260, 0.00000, 4.270, 0.00000
4.280, 0.00000, 4.290, 0.00000, 4.300, 0.00000, 4.310, 0.00000
4.320, 0.00000, 4.330, 0.00000, 4.340, 0.00000, 4.350, 0.00000
4.360, 0.00000, 4.370, 0.00000, 4.380, 0.00000, 4.390, 0.00000
4.400, 0.00000, 4.410, 0.00000, 4.420, 0.00000, 4.430, 0.00000
4.440, 0.00000, 4.450, 0.00000, 4.460, 0.00000, 4.470, 0.00000
4.480, 0.00000, 4.490, 0.00000, 4.500, 0.00000, 4.510, 0.00000
4.520, 0.00000, 4.530, 0.00000, 4.540, 0.00000, 4.550, 0.00000
4.560, 0.00000, 4.570, 0.00000, 4.580, 0.00000, 4.590, 0.00000
4.600, 0.00000, 4.610, 0.00000, 4.620, 0.00000, 4.630, 0.00000
4.640, 0.00000, 4.650, 0.00000, 4.660, 0.00000, 4.670, 0.00000
4.680, 0.00000, 4.690, 0.00000, 4.700, 0.00000, 4.710, 0.00000
4.720, 0.00000, 4.730, 0.00000, 4.740, 0.00000, 4.750, 0.00000
4.760, 0.00000, 4.770, 0.00000, 4.780, 0.00000, 4.790, 0.00000
4.800, 0.00000, 4.810, 0.00000, 4.820, 0.00000, 4.830, 0.00000
4.840, 0.00000, 4.850, 0.00000, 4.860, 0.00000, 4.870, 0.00000
4.880, 0.00000, 4.890, 0.00000, 4.900, 0.00000, 4.910, 0.00000
4.920, 0.00000, 4.930, 0.00000, 4.940, 0.00000, 4.950, 0.00000
4.960, 0.00000, 4.970, 0.00000, 4.980, 0.00000, 4.990, 0.00000
5.000, 0.00000, 5.010, 0.00000, 5.020, 0.00000, 5.030, 0.00000
5.040, 0.00000, 5.050, 0.00000, 5.060, 0.00000, 5.070, 0.00000
5.080, 0.00000, 5.090, 0.00000, 5.100, 0.00000, 5.110, 0.00000
5.120, 0.00000, 5.130, 0.00000, 5.140, 0.00000, 5.150, 0.00000
5.160, 0.00000, 5.170, 0.00000, 5.180, 0.00000, 5.190, 0.00000
5.200, 0.00000, 5.210, 0.00000, 5.220, 0.00000, 5.230, 0.00000
5.240, 0.00000, 5.250, 0.00000, 5.260, 0.00000, 5.270, 0.00000
5.280, 0.00000, 5.290, 0.00000, 5.300, 0.00000, 5.310, 0.00000
5.320, 0.00000, 5.330, 0.00000, 5.340, 0.00000, 5.350, 0.00000
5.360, 0.00000, 5.370, 0.00000, 5.380, 0.00000, 5.390, 0.00000
5.400, 0.00000, 5.410, 0.00000, 5.420, 0.00000, 5.430, 0.00000
5.440, 0.00000, 5.450, 0.00000, 5.460, 0.00000, 5.470, 0.00000
5.480, 0.00000, 5.490, 0.00000, 5.500, 0.00000, 5.510, 0.00000
5.520, 0.00000, 5.530, 0.00000, 5.540, 0.00000, 5.550, 0.00000
5.560, 0.00000, 5.570, 0.00000, 5.580, 0.00000, 5.590, 0.00000
5.600, 0.00000, 5.610, 0.00000, 5.620, 0.00000, 5.630, 0.00000
5.640, 0.00000, 5.650, 0.00000, 5.660, 0.00000, 5.670, 0.00000
5.680, 0.00000, 5.690, 0.00000, 5.700, 0.00000, 5.710, 0.00000
5.720, 0.00000, 5.730, 0.00000, 5.740, 0.00000, 5.750, 0.00000
5.760, 0.00000, 5.770, 0.00000, 5.780, 0.00000, 5.790, 0.00000
5.800, 0.00000, 5.810, 0.00000, 5.820, 0.00000, 5.830, 0.00000
5.840, 0.00000, 5.850, 0.00000, 5.860, 0.00000, 5.870, 0.00000
5.880, 0.00000, 5.890, 0.00000, 5.900, 0.00000, 5.910, 0.00000
5.920, 0.00000, 5.930, 0.00000, 5.940, 0.00000, 5.950, 0.00000
5.960, 0.00000, 5.970, 0.00000, 5.980, 0.00000, 5.990, 0.00000
6.000, 0.00000, 6.010, 34.15908, 6.020, 68.31816, 6.030, 102.47723
6.040, 136.63631, 6.050, 170.79539, 6.060, 162.25562, 6.070, 153.71585
6.080, 145.17608, 6.090, 136.63631, 6.100, 128.09654, 6.110, 119.55677
6.120, 111.01700, 6.130, 102.47723, 6.140, 93.93746, 6.150, 85.39769
6.160, 76.85792, 6.170, 68.31816, 6.180, 59.77839, 6.190, 51.23862
6.200, 42.69885, 6.210, 34.15908, 6.220, 25.61931, 6.230, 17.07954
6.240, 8.53977, 6.250, 0.00000, 6.260, 0.00000, 6.270, 0.00000
6.280, 0.00000, 6.290, 0.00000, 6.300, 0.00000, 6.310, 0.00000
6.320, 0.00000, 6.330, 0.00000, 6.340, 0.00000, 6.350, 0.00000
6.360, 0.00000, 6.370, 0.00000, 6.380, 0.00000, 6.390, 0.00000
6.400, 0.00000, 6.410, 0.00000, 6.420, 0.00000, 6.430, 0.00000
6.440, 0.00000, 6.450, 0.00000, 6.460, 0.00000, 6.470, 0.00000
6.480, 0.00000, 6.490, 0.00000, 6.500, 0.00000, 6.510, 0.00000
6.520, 0.00000, 6.530, 0.00000, 6.540, 0.00000, 6.550, 0.00000
6.560, 0.00000, 6.570, 0.00000, 6.580, 0.00000, 6.590, 0.00000
6.600, 0.00000, 6.610, 0.00000, 6.620, 0.00000, 6.630, 0.00000
6.640, 0.00000, 6.650, 0.00000, 6.660, 0.00000, 6.670, 0.00000
6.680, 0.00000, 6.690, 0.00000, 6.700, 0.00000, 6.710, 0.00000
6.720, 0.00000, 6.730, 0.00000, 6.740, 0.00000, 6.750, 0.00000
6.760, 0.00000, 6.770, 0.00000, 6.780, 0.00000, 6.790, 0.00000
6.800, 0.00000, 6.810, 0.00000, 6.820, 0.00000, 6.830, 0.00000
6.840, 0.00000, 6.850, 0.00000, 6.860, 0.00000, 6.870, 0.00000
6.880, 0.00000, 6.890, 0.00000, 6.900, 0.00000, 6.910, 0.00000
6.920, 0.00000, 6.930, 0.00000, 6.940, 0.00000, 6.950, 0.00000
6.960, 0.00000, 6.970, 0.00000, 6.980, 0.00000, 6.990, 0.00000
7.000, 0.00000, 7.010, 0.00000, 7.020, 0.00000, 7.030, 0.00000
7.040, 0.00000, 7.050, 0.00000, 7.060, 0.00000, 7.070, 0.00000
7.080, 0.00000, 7.090, 0.00000, 7.100, 0.00000, 7.110, 0.00000
7.120, 0.00000, 7.130, 0.00000, 7.140, 0.00000, 7.150, 0.00000
7.160, 0.00000, 7.170, 0.00000, 7.180, 0.00000, 7.190, 0.00000
7.200, 0.00000, 7.210, 0.00000, 7.220, 0.00000, 7.230, 0.00000
7.240, 0.00000, 7.250, 0.00000, 7.260, 0.00000, 7.270, 0.00000
7.280, 0.00000, 7.290, 0.00000, 7.300, 0.00000, 7.310, 0.00000
7.320, 0.00000, 7.330, 0.00000, 7.340, 0.00000, 7.350, 0.00000
7.360, 0.00000, 7.370, 0.00000, 7.380, 0.00000, 7.390, 0.00000
7.400, 0.00000, 7.410, 0.00000, 7.420, 0.00000, 7.430, 0.00000
7.440, 0.00000, 7.450, 0.00000, 7.460, 0.00000, 7.470, 0.00000
7.480, 0.00000, 7.490, 0.00000, 7.500, 0.00000, 7.510, 0.00000
7.520, 0.00000, 7.530, 0.00000, 7.540, 0.00000, 7.550, 0.00000
7.560, 0.00000, 7.570, 0.00000, 7.580, 0.00000, 7.590, 0.00000
7.600, 0.00000, 7.610, 0.00000, 7.620, 0.00000, 7.630, 0.00000
7.640, 0.00000, 7.650, 0.00000, 7.660, 0.00000, 7.670, 0.00000
7.680, 0.00000, 7.690, 0.00000, 7.700, 0.00000, 7.710, 0.00000
7.720, 0.00000, 7.730, 0.00000, 7.740, 0.00000, 7.750, 0.00000
7.760, 0.00000, 7.770, 0.00000, 7.780, 0.00000, 7.790, 0.00000
7.800, 0.00000, 7.810, 0.00000, 7.820, 0.00000, 7.830, 0.00000
7.840, 0.00000, 7.850, 0.00000, 7.860, 0.00000, 7.870, 0.00000
7.880, 0.00000, 7.890, 0.00000, 7.900, 0.00000, 7.910, 0.00000
7.920, 0.00000, 7.930, 0.00000, 7.940, 0.00000, 7.950, 0.00000
7.960, 0.00000, 7.970, 0.00000, 7.980, 0.00000, 7.990, 0.00000
8.000, 0.00000, 8.010, 30.41289, 8.020, 60.82578, 8.030, 91.23867
8.040, 121.65156, 8.050, 152.06445, 8.060, 144.46123, 8.070, 136.85801
8.080, 129.25478, 8.090, 121.65156, 8.100, 114.04834, 8.110, 106.44512
8.120, 98.84189, 8.130, 91.23867, 8.140, 83.63545, 8.150, 76.03223
8.160, 68.42900, 8.170, 60.82578, 8.180, 53.22256, 8.190, 45.61934
8.200, 38.01611, 8.210, 30.41289, 8.220, 22.80967, 8.230, 15.20645
8.240, 7.60322, 8.250, 0.00000, 8.260, 0.00000, 8.270, 0.00000
8.280, 0.00000, 8.290, 0.00000, 8.300, 0.00000, 8.310, 0.00000
8.320, 0.00000, 8.330, 0.00000, 8.340, 0.00000, 8.350, 0.00000
8.360, 0.00000, 8.370, 0.00000, 8.380, 0.00000, 8.390, 0.00000
8.400, 0.00000, 8.410, 0.00000, 8.420, 0.00000, 8.430, 0.00000
8.440, 0.00000, 8.450, 0.00000, 8.460, 0.00000, 8.470, 0.00000
8.480, 0.00000, 8.490, 0.00000, 8.500, 0.00000, 8.510, 0.00000
8.520, 0.00000, 8.530, 0.00000, 8.540, 0.00000, 8.550, 0.00000
8.560, 0.00000, 8.570, 0.00000, 8.580, 0.00000, 8.590, 0.00000
8.600, 0.00000, 8.610, 0.00000, 8.620, 0.00000, 8.630, 0.00000
8.640, 0.00000, 8.650, 0.00000, 8.660, 0.00000, 8.670, 0.00000
8.680, 0.00000, 8.690, 0.00000, 8.700, 0.00000, 8.710, 0.00000
8.720, 0.00000, 8.730, 0.00000, 8.740, 0.00000, 8.750, 0.00000
8.760, 0.00000, 8.770, 0.00000, 8.780, 0.00000, 8.790, 0.00000
8.800, 0.00000, 8.810, 0.00000, 8.820, 0.00000, 8.830, 0.00000
8.840, 0.00000, 8.850, 0.00000, 8.860, 0.00000, 8.870, 0.00000
8.880, 0.00000, 8.890, 0.00000, 8.900, 0.00000, 8.910, 0.00000
8.920, 0.00000, 8.930, 0.00000, 8.940, 0.00000, 8.950, 0.00000
8.960, 0.00000, 8.970, 0.00000, 8.980, 0.00000, 8.990, 0.00000
9.000, 0.00000, 9.010, 0.00000, 9.020, 0.00000, 9.030, 0.00000
9.040, 0.00000, 9.050, 0.00000, 9.060, 0.00000, 9.070, 0.00000
9.080, 0.00000, 9.090, 0.00000, 9.100, 0.00000, 9.110, 0.00000
9.120, 0.00000, 9.130, 0.00000, 9.140, 0.00000, 9.150, 0.00000
9.160, 0.00000, 9.170, 0.00000, 9.180, 0.00000, 9.190, 0.00000
9.200, 0.00000, 9.210, 0.00000, 9.220, 0.00000, 9.230, 0.00000
9.240, 0.00000, 9.250, 0.00000, 9.260, 0.00000, 9.270, 0.00000
9.280, 0.00000, 9.290, 0.00000, 9.300, 0.00000, 9.310, 0.00000
9.320, 0.00000, 9.330, 0.00000, 9.340, 0.00000, 9.350, 0.00000
9.360, 0.00000, 9.370, 0.00000, 9.380, 0.00000, 9.390, 0.00000
9.400, 0.00000, 9.410, 0.00000, 9.420, 0.00000, 9.430, 0.00000
9.440, 0.00000, 9.450, 0.00000, 9.460, 0.00000, 9.470, 0.00000
9.480, 0.00000, 9.490, 0.00000, 9.500, 0.00000, 9.510, 0.00000
9.520, 0.00000, 9.530, 0.00000, 9.540, 0.00000, 9.550, 0.00000
9.560, 0.00000, 9.570, 0.00000, 9.580, 0.00000, 9.590, 0.00000
9.600, 0.00000, 9.610, 0.00000, 9.620, 0.00000, 9.630, 0.00000
9.640, 0.00000, 9.650, 0.00000, 9.660, 0.00000, 9.670, 0.00000
9.680, 0.00000, 9.690, 0.00000, 9.700, 0.00000, 9.710, 0.00000
9.720, 0.00000, 9.730, 0.00000, 9.740, 0.00000, 9.750, 0.00000
9.760, 0.00000, 9.770, 0.00000, 9.780, 0.00000, 9.790, 0.00000
9.800, 0.00000, 9.810, 0.00000, 9.820, 0.00000, 9.830, 0.00000
9.840, 0.00000, 9.850, 0.00000, 9.860, 0.00000, 9.870, 0.00000
9.880, 0.00000, 9.890, 0.00000, 9.900, 0.00000, 9.910, 0.00000
9.920, 0.00000, 9.930, 0.00000, 9.940, 0.00000, 9.950, 0.00000
9.960, 0.00000, 9.970, 0.00000, 9.980, 0.00000, 9.990, 0.00000
*AMPLITUDE, NAME=ROW2
0.000, 0.00000, 0.010, 150.15886, 0.020, 300.31772, 0.030, 450.47658
0.040, 600.63544, 0.050, 750.79430, 0.060, 713.25459, 0.070, 675.71487
0.080, 638.17516, 0.090, 600.63544, 0.100, 563.09573, 0.110, 525.55601
0.120, 488.01630, 0.130, 450.47658, 0.140, 412.93687, 0.150, 375.39715
0.160, 337.85744, 0.170, 300.31772, 0.180, 262.77801, 0.190, 225.23829
0.200, 187.69858, 0.210, 150.15886, 0.220, 112.61915, 0.230, 75.07943
0.240, 37.53972, 0.250, 0.00000, 0.260, 0.00000, 0.270, 0.00000
0.280, 0.00000, 0.290, 0.00000, 0.300, 0.00000, 0.310, 0.00000
0.320, 0.00000, 0.330, 0.00000, 0.340, 0.00000, 0.350, 0.00000
0.360, 0.00000, 0.370, 0.00000, 0.380, 0.00000, 0.390, 0.00000
0.400, 0.00000, 0.410, 0.00000, 0.420, 0.00000, 0.430, 0.00000
0.440, 0.00000, 0.450, 0.00000, 0.460, 0.00000, 0.470, 0.00000
0.480, 0.00000, 0.490, 0.00000, 0.500, 0.00000, 0.510, 0.00000
0.520, 0.00000, 0.530, 0.00000, 0.540, 0.00000, 0.550, 0.00000
0.560, 0.00000, 0.570, 0.00000, 0.580, 0.00000, 0.590, 0.00000
0.600, 0.00000, 0.610, 0.00000, 0.620, 0.00000, 0.630, 0.00000
0.640, 0.00000, 0.650, 0.00000, 0.660, 0.00000, 0.670, 0.00000
0.680, 0.00000, 0.690, 0.00000, 0.700, 0.00000, 0.710, 0.00000
0.720, 0.00000, 0.730, 0.00000, 0.740, 0.00000, 0.750, 0.00000
0.760, 0.00000, 0.770, 0.00000, 0.780, 0.00000, 0.790, 0.00000
0.800, 0.00000, 0.810, 0.00000, 0.820, 0.00000, 0.830, 0.00000
0.840, 0.00000, 0.850, 0.00000, 0.860, 0.00000, 0.870, 0.00000
0.880, 0.00000, 0.890, 0.00000, 0.900, 0.00000, 0.910, 0.00000
0.920, 0.00000, 0.930, 0.00000, 0.940, 0.00000, 0.950, 0.00000
0.960, 0.00000, 0.970, 0.00000, 0.980, 0.00000, 0.990, 0.00000
1.000, 0.00000, 1.010, 0.00000, 1.020, 0.00000, 1.030, 0.00000
1.040, 0.00000, 1.050, 0.00000, 1.060, 0.00000, 1.070, 0.00000
1.080, 0.00000, 1.090, 0.00000, 1.100, 0.00000, 1.110, 0.00000
1.120, 0.00000, 1.130, 0.00000, 1.140, 0.00000, 1.150, 0.00000
1.160, 0.00000, 1.170, 0.00000, 1.180, 0.00000, 1.190, 0.00000
1.200, 0.00000, 1.210, 0.00000, 1.220, 0.00000, 1.230, 0.00000
1.240, 0.00000, 1.250, 0.00000, 1.260, 0.00000, 1.270, 0.00000
1.280, 0.00000, 1.290, 0.00000, 1.300, 0.00000, 1.310, 0.00000
1.320, 0.00000, 1.330, 0.00000, 1.340, 0.00000, 1.350, 0.00000
1.360, 0.00000, 1.370, 0.00000, 1.380, 0.00000, 1.390, 0.00000
1.400, 0.00000, 1.410, 0.00000, 1.420, 0.00000, 1.430, 0.00000
1.440, 0.00000, 1.450, 0.00000, 1.460, 0.00000, 1.470, 0.00000
1.480, 0.00000, 1.490, 0.00000, 1.500, 0.00000, 1.510, 0.00000
1.520, 0.00000, 1.530, 0.00000, 1.540, 0.00000, 1.550, 0.00000
1.560, 0.00000, 1.570, 0.00000, 1.580, 0.00000, 1.590, 0.00000
1.600, 0.00000, 1.610, 0.00000, 1.620, 0.00000, 1.630, 0.00000
1.640, 0.00000, 1.650, 0.00000, 1.660, 0.00000, 1.670, 0.00000
1.680, 0.00000, 1.690, 0.00000, 1.700, 0.00000, 1.710, 0.00000
1.720, 0.00000, 1.730, 0.00000, 1.740, 0.00000, 1.750, 0.00000
1.760, 0.00000, 1.770, 0.00000, 1.780, 0.00000, 1.790, 0.00000
1.800, 0.00000, 1.810, 0.00000, 1.820, 0.00000, 1.830, 0.00000
1.840, 0.00000, 1.850, 0.00000, 1.860, 0.00000, 1.870, 0.00000
1.880, 0.00000, 1.890, 0.00000, 1.900, 0.00000, 1.910, 0.00000
1.920, 0.00000, 1.930, 0.00000, 1.940, 0.00000, 1.950, 0.00000
1.960, 0.00000, 1.970, 0.00000, 1.980, 0.00000, 1.990, 0.00000
2.000, 0.00000, 2.010, 108.55038, 2.020, 217.10075, 2.030, 325.65113
2.040, 434.20151, 2.050, 542.75188, 2.060, 515.61429, 2.070, 488.47670
2.080, 461.33910, 2.090, 434.20151, 2.100, 407.06391, 2.110, 379.92632
2.120, 352.78872, 2.130, 325.65113, 2.140, 298.51354, 2.150, 271.37594
2.160, 244.23835, 2.170, 217.10075, 2.180, 189.96316, 2.190, 162.82557
2.200, 135.68797, 2.210, 108.55038, 2.220, 81.41278, 2.230, 54.27519
2.240, 27.13759, 2.250, 0.00000, 2.260, 0.00000, 2.270, 0.00000
2.280, 0.00000, 2.290, 0.00000, 2.300, 0.00000, 2.310, 0.00000
2.320, 0.00000, 2.330, 0.00000, 2.340, 0.00000, 2.350, 0.00000
2.360, 0.00000, 2.370, 0.00000, 2.380, 0.00000, 2.390, 0.00000
2.400, 0.00000, 2.410, 0.00000, 2.420, 0.00000, 2.430, 0.00000
2.440, 0.00000, 2.450, 0.00000, 2.460, 0.00000, 2.470, 0.00000
2.480, 0.00000, 2.490, 0.00000, 2.500, 0.00000, 2.510, 0.00000
2.520, 0.00000, 2.530, 0.00000, 2.540, 0.00000, 2.550, 0.00000
2.560, 0.00000, 2.570, 0.00000, 2.580, 0.00000, 2.590, 0.00000
2.600, 0.00000, 2.610, 0.00000, 2.620, 0.00000, 2.630, 0.00000
2.640, 0.00000, 2.650, 0.00000, 2.660, 0.00000, 2.670, 0.00000
2.680, 0.00000, 2.690, 0.00000, 2.700, 0.00000, 2.710, 0.00000
2.720, 0.00000, 2.730, 0.00000, 2.740, 0.00000, 2.750, 0.00000
2.760, 0.00000, 2.770, 0.00000, 2.780, 0.00000, 2.790, 0.00000
2.800, 0.00000, 2.810, 0.00000, 2.820, 0.00000, 2.830, 0.00000
2.840, 0.00000, 2.850, 0.00000, 2.860, 0.00000, 2.870, 0.00000
2.880, 0.00000, 2.890, 0.00000, 2.900, 0.00000, 2.910, 0.00000
2.920, 0.00000, 2.930, 0.00000, 2.940, 0.00000, 2.950, 0.00000
2.960, 0.00000, 2.970, 0.00000, 2.980, 0.00000, 2.990, 0.00000
3.000, 0.00000, 3.010, 0.00000, 3.020, 0.00000, 3.030, 0.00000
3.040, 0.00000, 3.050, 0.00000, 3.060, 0.00000, 3.070, 0.00000
3.080, 0.00000, 3.090, 0.00000, 3.100, 0.00000, 3.110, 0.00000
3.120, 0.00000, 3.130, 0.00000, 3.140, 0.00000, 3.150, 0.00000
3.160, 0.00000, 3.170, 0.00000, 3.180, 0.00000, 3.190, 0.00000
3.200, 0.00000, 3.210, 0.00000, 3.220, 0.00000, 3.230, 0.00000
3.240, 0.00000, 3.250, 0.00000, 3.260, 0.00000, 3.270, 0.00000
3.280, 0.00000, 3.290, 0.00000, 3.300, 0.00000, 3.310, 0.00000
3.320, 0.00000, 3.330, 0.00000, 3.340, 0.00000, 3.350, 0.00000
3.360, 0.00000, 3.370, 0.00000, 3.380, 0.00000, 3.390, 0.00000
3.400, 0.00000, 3.410, 0.00000, 3.420, 0.00000, 3.430, 0.00000
3.440, 0.00000, 3.450, 0.00000, 3.460, 0.00000, 3.470, 0.00000
3.480, 0.00000, 3.490, 0.00000, 3.500, 0.00000, 3.510, 0.00000
3.520, 0.00000, 3.530, 0.00000, 3.540, 0.00000, 3.550, 0.00000
3.560, 0.00000, 3.570, 0.00000, 3.580, 0.00000, 3.590, 0.00000
3.600, 0.00000, 3.610, 0.00000, 3.620, 0.00000, 3.630, 0.00000
3.640, 0.00000, 3.650, 0.00000, 3.660, 0.00000, 3.670, 0.00000
3.680, 0.00000, 3.690, 0.00000, 3.700, 0.00000, 3.710, 0.00000
3.720, 0.00000, 3.730, 0.00000, 3.740, 0.00000, 3.750, 0.00000
3.760, 0.00000, 3.770, 0.00000, 3.780, 0.00000, 3.790, 0.00000
3.800, 0.00000, 3.810, 0.00000, 3.820, 0.00000, 3.830, 0.00000
3.840, 0.00000, 3.850, 0.00000, 3.860, 0.00000, 3.870, 0.00000
3.880, 0.00000, 3.890, 0.00000, 3.900, 0.00000, 3.910, 0.00000
3.920, 0.00000, 3.930, 0.00000, 3.940, 0.00000, 3.950, 0.00000
3.960, 0.00000, 3.970, 0.00000, 3.980, 0.00000, 3.990, 0.00000
4.000, 0.00000, 4.010, 88.95273, 4.020, 177.90547, 4.030, 266.85820
4.040, 355.81094, 4.050, 444.76367, 4.060, 422.52549, 4.070, 400.28730
4.080, 378.04912, 4.090, 355.81094, 4.100, 333.57275, 4.110, 311.33457
4.120, 289.09639, 4.130, 266.85820, 4.140, 244.62002, 4.150, 222.38184
4.160, 200.14365, 4.170, 177.90547, 4.180, 155.66728, 4.190, 133.42910
4.200, 111.19092, 4.210, 88.95273, 4.220, 66.71455, 4.230, 44.47637
4.240, 22.23818, 4.250, 0.00000, 4.260, 0.00000, 4.270, 0.00000
4.280, 0.00000, 4.290, 0.00000, 4.300, 0.00000, 4.310, 0.00000
4.320, 0.00000, 4.330, 0.00000, 4.340, 0.00000, 4.350, 0.00000
4.360, 0.00000, 4.370, 0.00000, 4.380, 0.00000, 4.390, 0.00000
4.400, 0.00000, 4.410, 0.00000, 4.420, 0.00000, 4.430, 0.00000
4.440, 0.00000, 4.450, 0.00000, 4.460, 0.00000, 4.470, 0.00000
4.480, 0.00000, 4.490, 0.00000, 4.500, 0.00000, 4.510, 0.00000
4.520, 0.00000, 4.530, 0.00000, 4.540, 0.00000, 4.550, 0.00000
4.560, 0.00000, 4.570, 0.00000, 4.580, 0.00000, 4.590, 0.00000
4.600, 0.00000, 4.610, 0.00000, 4.620, 0.00000, 4.630, 0.00000
4.640, 0.00000, 4.650, 0.00000, 4.660, 0.00000, 4.670, 0.00000
4.680, 0.00000, 4.690, 0.00000, 4.700, 0.00000, 4.710, 0.00000
4.720, 0.00000, 4.730, 0.00000, 4.740, 0.00000, 4.750, 0.00000
4.760, 0.00000, 4.770, 0.00000, 4.780, 0.00000, 4.790, 0.00000
4.800, 0.00000, 4.810, 0.00000, 4.820, 0.00000, 4.830, 0.00000
4.840, 0.00000, 4.850, 0.00000, 4.860, 0.00000, 4.870, 0.00000
4.880, 0.00000, 4.890, 0.00000, 4.900, 0.00000, 4.910, 0.00000
4.920, 0.00000, 4.930, 0.00000, 4.940, 0.00000, 4.950, 0.00000
4.960, 0.00000, 4.970, 0.00000, 4.980, 0.00000, 4.990, 0.00000
5.000, 0.00000, 5.010, 0.00000, 5.020, 0.00000, 5.030, 0.00000
5.040, 0.00000, 5.050, 0.00000, 5.060, 0.00000, 5.070, 0.00000
5.080, 0.00000, 5.090, 0.00000, 5.100, 0.00000, 5.110, 0.00000
5.120, 0.00000, 5.130, 0.00000, 5.140, 0.00000, 5.150, 0.00000
5.160, 0.00000, 5.170, 0.00000, 5.180, 0.00000, 5.190, 0.00000
5.200, 0.00000, 5.210, 0.00000, 5.220, 0.00000, 5.230, 0.00000
5.240, 0.00000, 5.250, 0.00000, 5.260, 0.00000, 5.270, 0.00000
5.280, 0.00000, 5.290, 0.00000, 5.300, 0.00000, 5.310, 0.00000
5.320, 0.00000, 5.330, 0.00000, 5.340, 0.00000, 5.350, 0.00000
5.360, 0.00000, 5.370, 0.00000, 5.380, 0.00000, 5.390, 0.00000
5.400, 0.00000, 5.410, 0.00000, 5.420, 0.00000, 5.430, 0.00000
5.440, 0.00000, 5.450, 0.00000, 5.460, 0.00000, 5.470, 0.00000
5.480, 0.00000, 5.490, 0.00000, 5.500, 0.00000, 5.510, 0.00000
5.520, 0.00000, 5.530, 0.00000, 5.540, 0.00000, 5.550, 0.00000
5.560, 0.00000, 5.570, 0.00000, 5.580, 0.00000, 5.590, 0.00000
5.600, 0.00000, 5.610, 0.00000, 5.620, 0.00000, 5.630, 0.00000
5.640, 0.00000, 5.650, 0.00000, 5.660, 0.00000, 5.670, 0.00000
5.680, 0.00000, 5.690, 0.00000, 5.700, 0.00000, 5.710, 0.00000
5.720, 0.00000, 5.730, 0.00000, 5.740, 0.00000, 5.750, 0.00000
5.760, 0.00000, 5.770, 0.00000, 5.780, 0.00000, 5.790, 0.00000
5.800, 0.00000, 5.810, 0.00000, 5.820, 0.00000, 5.830, 0.00000
5.840, 0.00000, 5.850, 0.00000, 5.860, 0.00000, 5.870, 0.00000
5.880, 0.00000, 5.890, 0.00000, 5.900, 0.00000, 5.910, 0.00000
5.920, 0.00000, 5.930, 0.00000, 5.940, 0.00000, 5.950, 0.00000
5.960, 0.00000, 5.970, 0.00000, 5.980, 0.00000, 5.990, 0.00000
6.000, 0.00000, 6.010, 76.86929, 6.020, 153.73859, 6.030, 230.60788
6.040, 307.47717, 6.050, 384.34647, 6.060, 365.12914, 6.070, 345.91182
6.080, 326.69450, 6.090, 307.47717, 6.100, 288.25985, 6.110, 269.04253
6.120, 249.82520, 6.130, 230.60788, 6.140, 211.39056, 6.150, 192.17323
6.160, 172.95591, 6.170, 153.73859, 6.180, 134.52126, 6.190, 115.30394
6.200, 96.08662, 6.210, 76.86929, 6.220, 57.65197, 6.230, 38.43465
6.240, 19.21732, 6.250, 0.00000, 6.260, 0.00000, 6.270, 0.00000
6.280, 0.00000, 6.290, 0.00000, 6.300, 0.00000, 6.310, 0.00000
6.320, 0.00000, 6.330, 0.00000, 6.340, 0.00000, 6.350, 0.00000
6.360, 0.00000, 6.370, 0.00000, 6.380, 0.00000, 6.390, 0.00000
6.400, 0.00000, 6.410, 0.00000, 6.420, 0.00000, 6.430, 0.00000
6.440, 0.00000, 6.450, 0.00000, 6.460, 0.00000, 6.470, 0.00000
6.480, 0.00000, 6.490, 0.00000, 6.500, 0.00000, 6.510, 0.00000
6.520, 0.00000, 6.530, 0.00000, 6.540, 0.00000, 6.550, 0.00000
6.560, 0.00000, 6.570, 0.00000, 6.580, 0.00000, 6.590, 0.00000
6.600, 0.00000, 6.610, 0.00000, 6.620, 0.00000, 6.630, 0.00000
6.640, 0.00000, 6.650, 0.00000, 6.660, 0.00000, 6.670, 0.00000
6.680, 0.00000, 6.690, 0.00000, 6.700, 0.00000, 6.710, 0.00000
6.720, 0.00000, 6.730, 0.00000, 6.740, 0.00000, 6.750, 0.00000
6.760, 0.00000, 6.770, 0.00000, 6.780, 0.00000, 6.790, 0.00000
6.800, 0.00000, 6.810, 0.00000, 6.820, 0.00000, 6.830, 0.00000
6.840, 0.00000, 6.850, 0.00000, 6.860, 0.00000, 6.870, 0.00000
6.880, 0.00000, 6.890, 0.00000, 6.900, 0.00000, 6.910, 0.00000
6.920, 0.00000, 6.930, 0.00000, 6.940, 0.00000, 6.950, 0.00000
6.960, 0.00000, 6.970, 0.00000, 6.980, 0.00000, 6.990, 0.00000
7.000, 0.00000, 7.010, 0.00000, 7.020, 0.00000, 7.030, 0.00000
7.040, 0.00000, 7.050, 0.00000, 7.060, 0.00000, 7.070, 0.00000
7.080, 0.00000, 7.090, 0.00000, 7.100, 0.00000, 7.110, 0.00000
7.120, 0.00000, 7.130, 0.00000, 7.140, 0.00000, 7.150, 0.00000
7.160, 0.00000, 7.170, 0.00000, 7.180, 0.00000, 7.190, 0.00000
7.200, 0.00000, 7.210, 0.00000, 7.220, 0.00000, 7.230, 0.00000
7.240, 0.00000, 7.250, 0.00000, 7.260, 0.00000, 7.270, 0.00000
7.280, 0.00000, 7.290, 0.00000, 7.300, 0.00000, 7.310, 0.00000
7.320, 0.00000, 7.330, 0.00000, 7.340, 0.00000, 7.350, 0.00000
7.360, 0.00000, 7.370, 0.00000, 7.380, 0.00000, 7.390, 0.00000
7.400, 0.00000, 7.410, 0.00000, 7.420, 0.00000, 7.430, 0.00000
7.440, 0.00000, 7.450, 0.00000, 7.460, 0.00000, 7.470, 0.00000
7.480, 0.00000, 7.490, 0.00000, 7.500, 0.00000, 7.510, 0.00000
7.520, 0.00000, 7.530, 0.00000, 7.540, 0.00000, 7.550, 0.00000
7.560, 0.00000, 7.570, 0.00000, 7.580, 0.00000, 7.590, 0.00000
7.600, 0.00000, 7.610, 0.00000, 7.620, 0.00000, 7.630, 0.00000
7.640, 0.00000, 7.650, 0.00000, 7.660, 0.00000, 7.670, 0.00000
7.680, 0.00000, 7.690, 0.00000, 7.700, 0.00000, 7.710, 0.00000
7.720, 0.00000, 7.730, 0.00000, 7.740, 0.00000, 7.750, 0.00000
7.760, 0.00000, 7.770, 0.00000, 7.780, 0.00000, 7.790, 0.00000
7.800, 0.00000, 7.810, 0.00000, 7.820, 0.00000, 7.830, 0.00000
7.840, 0.00000, 7.850, 0.00000, 7.860, 0.00000, 7.870, 0.00000
7.880, 0.00000, 7.890, 0.00000, 7.900, 0.00000, 7.910, 0.00000
7.920, 0.00000, 7.930, 0.00000, 7.940, 0.00000, 7.950, 0.00000
7.960, 0.00000, 7.970, 0.00000, 7.980, 0.00000, 7.990, 0.00000
8.000, 0.00000, 8.010, 68.43913, 8.020, 136.87825, 8.030, 205.31738
8.040, 273.75650, 8.050, 342.19563, 8.060, 325.08584, 8.070, 307.97606
8.080, 290.86628, 8.090, 273.75650, 8.100, 256.64672, 8.110, 239.53694
8.120, 222.42716, 8.130, 205.31738, 8.140, 188.20759, 8.150, 171.09781
8.160, 153.98803, 8.170, 136.87825, 8.180, 119.76847, 8.190, 102.65869
8.200, 85.54891, 8.210, 68.43913, 8.220, 51.32934, 8.230, 34.21956
8.240, 17.10978, 8.250, 0.00000, 8.260, 0.00000, 8.270, 0.00000
8.280, 0.00000, 8.290, 0.00000, 8.300, 0.00000, 8.310, 0.00000
8.320, 0.00000, 8.330, 0.00000, 8.340, 0.00000, 8.350, 0.00000
8.360, 0.00000, 8.370, 0.00000, 8.380, 0.00000, 8.390, 0.00000
8.400, 0.00000, 8.410, 0.00000, 8.420, 0.00000, 8.430, 0.00000
8.440, 0.00000, 8.450, 0.00000, 8.460, 0.00000, 8.470, 0.00000
8.480, 0.00000, 8.490, 0.00000, 8.500, 0.00000, 8.510, 0.00000
8.520, 0.00000, 8.530, 0.00000, 8.540, 0.00000, 8.550, 0.00000
8.560, 0.00000, 8.570, 0.00000, 8.580, 0.00000, 8.590, 0.00000
8.600, 0.00000, 8.610, 0.00000, 8.620, 0.00000, 8.630, 0.00000
8.640, 0.00000, 8.650, 0.00000, 8.660, 0.00000, 8.670, 0.00000
8.680, 0.00000, 8.690, 0.00000, 8.700, 0.00000, 8.710, 0.00000
8.720, 0.00000, 8.730, 0.00000, 8.740, 0.00000, 8.750, 0.00000
8.760, 0.00000, 8.770, 0.00000, 8.780, 0.00000, 8.790, 0.00000
8.800, 0.00000, 8.810, 0.00000, 8.820, 0.00000, 8.830, 0.00000
8.840, 0.00000, 8.850, 0.00000, 8.860, 0.00000, 8.870, 0.00000
8.880, 0.00000, 8.890, 0.00000, 8.900, 0.00000, 8.910, 0.00000
8.920, 0.00000, 8.930, 0.00000, 8.940, 0.00000, 8.950, 0.00000
8.960, 0.00000, 8.970, 0.00000, 8.980, 0.00000, 8.990, 0.00000
9.000, 0.00000, 9.010, 0.00000, 9.020, 0.00000, 9.030, 0.00000
9.040, 0.00000, 9.050, 0.00000, 9.060, 0.00000, 9.070, 0.00000
9.080, 0.00000, 9.090, 0.00000, 9.100, 0.00000, 9.110, 0.00000
9.120, 0.00000, 9.130, 0.00000, 9.140, 0.00000, 9.150, 0.00000
9.160, 0.00000, 9.170, 0.00000, 9.180, 0.00000, 9.190, 0.00000
9.200, 0.00000, 9.210, 0.00000, 9.220, 0.00000, 9.230, 0.00000
9.240, 0.00000, 9.250, 0.00000, 9.260, 0.00000, 9.270, 0.00000
9.280, 0.00000, 9.290, 0.00000, 9.300, 0.00000, 9.310, 0.00000
9.320, 0.00000, 9.330, 0.00000, 9.340, 0.00000, 9.350, 0.00000
9.360, 0.00000, 9.370, 0.00000, 9.380, 0.00000, 9.390, 0.00000
9.400, 0.00000, 9.410, 0.00000, 9.420, 0.00000, 9.430, 0.00000
9.440, 0.00000, 9.450, 0.00000, 9.460, 0.00000, 9.470, 0.00000
9.480, 0.00000, 9.490, 0.00000, 9.500, 0.00000, 9.510, 0.00000
9.520, 0.00000, 9.530, 0.00000, 9.540, 0.00000, 9.550, 0.00000
9.560, 0.00000, 9.570, 0.00000, 9.580, 0.00000, 9.590, 0.00000
9.600, 0.00000, 9.610, 0.00000, 9.620, 0.00000, 9.630, 0.00000
9.640, 0.00000, 9.650, 0.00000, 9.660, 0.00000, 9.670, 0.00000
9.680, 0.00000, 9.690, 0.00000, 9.700, 0.00000, 9.710, 0.00000
9.720, 0.00000, 9.730, 0.00000, 9.740, 0.00000, 9.750, 0.00000
9.760, 0.00000, 9.770, 0.00000, 9.780, 0.00000, 9.790, 0.00000
9.800, 0.00000, 9.810, 0.00000, 9.820, 0.00000, 9.830, 0.00000
9.840, 0.00000, 9.850, 0.00000, 9.860, 0.00000, 9.870, 0.00000
9.880, 0.00000, 9.890, 0.00000, 9.900, 0.00000, 9.910, 0.00000
9.920, 0.00000, 9.930, 0.00000, 9.940, 0.00000, 9.950, 0.00000
9.960, 0.00000, 9.970, 0.00000, 9.980, 0.00000, 9.990, 0.00000
*AMPLITUDE, NAME=ROW3
0.000, 0.00000, 0.010, 338.68200, 0.020, 677.36401, 0.030, 1016.04601
0.040, 1354.72801, 0.050, 1693.41001, 0.060, 1608.73951, 0.070, 1524.06901
0.080, 1439.39851, 0.090, 1354.72801, 0.100, 1270.05751, 0.110, 1185.38701
0.120, 1100.71651, 0.130, 1016.04601, 0.140, 931.37551, 0.150, 846.70501
0.160, 762.03451, 0.170, 677.36401, 0.180, 592.69350, 0.190, 508.02300
0.200, 423.35250, 0.210, 338.68200, 0.220, 254.01150, 0.230, 169.34100
0.240, 84.67050, 0.250, 0.00000, 0.260, 0.00000, 0.270, 0.00000
0.280, 0.00000, 0.290, 0.00000, 0.300, 0.00000, 0.310, 0.00000
0.320, 0.00000, 0.330, 0.00000, 0.340, 0.00000, 0.350, 0.00000
0.360, 0.00000, 0.370, 0.00000, 0.380, 0.00000, 0.390, 0.00000
0.400, 0.00000, 0.410, 0.00000, 0.420, 0.00000, 0.430, 0.00000
0.440, 0.00000, 0.450, 0.00000, 0.460, 0.00000, 0.470, 0.00000
0.480, 0.00000, 0.490, 0.00000, 0.500, 0.00000, 0.510, 0.00000
0.520, 0.00000, 0.530, 0.00000, 0.540, 0.00000, 0.550, 0.00000
0.560, 0.00000, 0.570, 0.00000, 0.580, 0.00000, 0.590, 0.00000
0.600, 0.00000, 0.610, 0.00000, 0.620, 0.00000, 0.630, 0.00000
0.640, 0.00000, 0.650, 0.00000, 0.660, 0.00000, 0.670, 0.00000
0.680, 0.00000, 0.690, 0.00000, 0.700, 0.00000, 0.710, 0.00000
0.720, 0.00000, 0.730, 0.00000, 0.740, 0.00000, 0.750, 0.00000
0.760, 0.00000, 0.770, 0.00000, 0.780, 0.00000, 0.790, 0.00000
0.800, 0.00000, 0.810, 0.00000, 0.820, 0.00000, 0.830, 0.00000
0.840, 0.00000, 0.850, 0.00000, 0.860, 0.00000, 0.870, 0.00000
0.880, 0.00000, 0.890, 0.00000, 0.900, 0.00000, 0.910, 0.00000
0.920, 0.00000, 0.930, 0.00000, 0.940, 0.00000, 0.950, 0.00000
0.960, 0.00000, 0.970, 0.00000, 0.980, 0.00000, 0.990, 0.00000
1.000, 0.00000, 1.010, 0.00000, 1.020, 0.00000, 1.030, 0.00000
1.040, 0.00000, 1.050, 0.00000, 1.060, 0.00000, 1.070, 0.00000
1.080, 0.00000, 1.090, 0.00000, 1.100, 0.00000, 1.110, 0.00000
1.120, 0.00000, 1.130, 0.00000, 1.140, 0.00000, 1.150, 0.00000
1.160, 0.00000, 1.170, 0.00000, 1.180, 0.00000, 1.190, 0.00000
1.200, 0.00000, 1.210, 0.00000, 1.220, 0.00000, 1.230, 0.00000
1.240, 0.00000, 1.250, 0.00000, 1.260, 0.00000, 1.270, 0.00000
1.280, 0.00000, 1.290, 0.00000, 1.300, 0.00000, 1.310, 0.00000
1.320, 0.00000, 1.330, 0.00000, 1.340, 0.00000, 1.350, 0.00000
1.360, 0.00000, 1.370, 0.00000, 1.380, 0.00000, 1.390, 0.00000
1.400, 0.00000, 1.410, 0.00000, 1.420, 0.00000, 1.430, 0.00000
1.440, 0.00000, 1.450, 0.00000, 1.460, 0.00000, 1.470, 0.00000
1.480, 0.00000, 1.490, 0.00000, 1.500, 0.00000, 1.510, 0.00000
1.520, 0.00000, 1.530, 0.00000, 1.540, 0.00000, 1.550, 0.00000
1.560, 0.00000, 1.570, 0.00000, 1.580, 0.00000, 1.590, 0.00000
1.600, 0.00000, 1.610, 0.00000, 1.620, 0.00000, 1.630, 0.00000
1.640, 0.00000, 1.650, 0.00000, 1.660, 0.00000, 1.670, 0.00000
1.680, 0.00000, 1.690, 0.00000, 1.700, 0.00000, 1.710, 0.00000
1.720, 0.00000, 1.730, 0.00000, 1.740, 0.00000, 1.750, 0.00000
1.760, 0.00000, 1.770, 0.00000, 1.780, 0.00000, 1.790, 0.00000
1.800, 0.00000, 1.810, 0.00000, 1.820, 0.00000, 1.830, 0.00000
1.840, 0.00000, 1.850, 0.00000, 1.860, 0.00000, 1.870, 0.00000
1.880, 0.00000, 1.890, 0.00000, 1.900, 0.00000, 1.910, 0.00000
1.920, 0.00000, 1.930, 0.00000, 1.940, 0.00000, 1.950, 0.00000
1.960, 0.00000, 1.970, 0.00000, 1.980, 0.00000, 1.990, 0.00000
2.000, 0.00000, 2.010, 244.83443, 2.020, 489.66886, 2.030, 734.50329
2.040, 979.33772, 2.050, 1224.17215, 2.060, 1162.96354, 2.070, 1101.75493
2.080, 1040.54633, 2.090, 979.33772, 2.100, 918.12911, 2.110, 856.92050
2.120, 795.71190, 2.130, 734.50329, 2.140, 673.29468, 2.150, 612.08607
2.160, 550.87747, 2.170, 489.66886, 2.180, 428.46025, 2.190, 367.25164
2.200, 306.04304, 2.210, 244.83443, 2.220, 183.62582, 2.230, 122.41721
2.240, 61.20861, 2.250, 0.00000, 2.260, 0.00000, 2.270, 0.00000
2.280, 0.00000, 2.290, 0.00000, 2.300, 0.00000, 2.310, 0.00000
2.320, 0.00000, 2.330, 0.00000, 2.340, 0.00000, 2.350, 0.00000
2.360, 0.00000, 2.370, 0.00000, 2.380, 0.00000, 2.390, 0.00000
2.400, 0.00000, 2.410, 0.00000, 2.420, 0.00000, 2.430, 0.00000
2.440, 0.00000, 2.450, 0.00000, 2.460, 0.00000, 2.470, 0.00000
2.480, 0.00000, 2.490, 0.00000, 2.500, 0.00000, 2.510, 0.00000
2.520, 0.00000, 2.530, 0.00000, 2.540, 0.00000, 2.550, 0.00000
2.560, 0.00000, 2.570, 0.00000, 2.580, 0.00000, 2.590, 0.00000
2.600, 0.00000, 2.610, 0.00000, 2.620, 0.00000, 2.630, 0.00000
2.640, 0.00000, 2.650, 0.00000, 2.660, 0.00000, 2.670, 0.00000
2.680, 0.00000, 2.690, 0.00000, 2.700, 0.00000, 2.710, 0.00000
2.720, 0.00000, 2.730, 0.00000, 2.740, 0.00000, 2.750, 0.00000
2.760, 0.00000, 2.770, 0.00000, 2.780, 0.00000, 2.790, 0.00000
2.800, 0.00000, 2.810, 0.00000, 2.820, 0.00000, 2.830, 0.00000
2.840, 0.00000, 2.850, 0.00000, 2.860, 0.00000, 2.870, 0.00000
2.880, 0.00000, 2.890, 0.00000, 2.900, 0.00000, 2.910, 0.00000
2.920, 0.00000, 2.930, 0.00000, 2.940, 0.00000, 2.950, 0.00000
2.960, 0.00000, 2.970, 0.00000, 2.980, 0.00000, 2.990, 0.00000
3.000, 0.00000, 3.010, 0.00000, 3.020, 0.00000, 3.030, 0.00000
3.040, 0.00000, 3.050, 0.00000, 3.060, 0.00000, 3.070, 0.00000
3.080, 0.00000, 3.090, 0.00000, 3.100, 0.00000, 3.110, 0.00000
3.120, 0.00000, 3.130, 0.00000, 3.140, 0.00000, 3.150, 0.00000
3.160, 0.00000, 3.170, 0.00000, 3.180, 0.00000, 3.190, 0.00000
3.200, 0.00000, 3.210, 0.00000, 3.220, 0.00000, 3.230, 0.00000
3.240, 0.00000, 3.250, 0.00000, 3.260, 0.00000, 3.270, 0.00000
3.280, 0.00000, 3.290, 0.00000, 3.300, 0.00000, 3.310, 0.00000
3.320, 0.00000, 3.330, 0.00000, 3.340, 0.00000, 3.350, 0.00000
3.360, 0.00000, 3.370, 0.00000, 3.380, 0.00000, 3.390, 0.00000
3.400, 0.00000, 3.410, 0.00000, 3.420, 0.00000, 3.430, 0.00000
3.440, 0.00000, 3.450, 0.00000, 3.460, 0.00000, 3.470, 0.00000
3.480, 0.00000, 3.490, 0.00000, 3.500, 0.00000, 3.510, 0.00000
3.520, 0.00000, 3.530, 0.00000, 3.540, 0.00000, 3.550, 0.00000
3.560, 0.00000, 3.570, 0.00000, 3.580, 0.00000, 3.590, 0.00000
3.600, 0.00000, 3.610, 0.00000, 3.620, 0.00000, 3.630, 0.00000
3.640, 0.00000, 3.650, 0.00000, 3.660, 0.00000, 3.670, 0.00000
3.680, 0.00000, 3.690, 0.00000, 3.700, 0.00000, 3.710, 0.00000
3.720, 0.00000, 3.730, 0.00000, 3.740, 0.00000, 3.750, 0.00000
3.760, 0.00000, 3.770, 0.00000, 3.780, 0.00000, 3.790, 0.00000
3.800, 0.00000, 3.810, 0.00000, 3.820, 0.00000, 3.830, 0.00000
3.840, 0.00000, 3.850, 0.00000, 3.860, 0.00000, 3.870, 0.00000
3.880, 0.00000, 3.890, 0.00000, 3.900, 0.00000, 3.910, 0.00000
3.920, 0.00000, 3.930, 0.00000, 3.940, 0.00000, 3.950, 0.00000
3.960, 0.00000, 3.970, 0.00000, 3.980, 0.00000, 3.990, 0.00000
4.000, 0.00000, 4.010, 200.63212, 4.020, 401.26423, 4.030, 601.89635
4.040, 802.52847, 4.050, 1003.16059, 4.060, 953.00256, 4.070, 902.84453
4.080, 852.68650, 4.090, 802.52847, 4.100, 752.37044, 4.110, 702.21241
4.120, 652.05438, 4.130, 601.89635, 4.140, 551.73832, 4.150, 501.58029
4.160, 451.42226, 4.170, 401.26423, 4.180, 351.10621, 4.190, 300.94818
4.200, 250.79015, 4.210, 200.63212, 4.220, 150.47409, 4.230, 100.31606
4.240, 50.15803, 4.250, 0.00000, 4.260, 0.00000, 4.270, 0.00000
4.280, 0.00000, 4.290, 0.00000, 4.300, 0.00000, 4.310, 0.00000
4.320, 0.00000, 4.330, 0.00000, 4.340, 0.00000, 4.350, 0.00000
4.360, 0.00000, 4.370, 0.00000, 4.380, 0.00000, 4.390, 0.00000
4.400, 0.00000, 4.410, 0.00000, 4.420, 0.00000, 4.430, 0.00000
4.440, 0.00000, 4.450, 0.00000, 4.460, 0.00000, 4.470, 0.00000
4.480, 0.00000, 4.490, 0.00000, 4.500, 0.00000, 4.510, 0.00000
4.520, 0.00000, 4.530, 0.00000, 4.540, 0.00000, 4.550, 0.00000
4.560, 0.00000, 4.570, 0.00000, 4.580, 0.00000, 4.590, 0.00000
4.600, 0.00000, 4.610, 0.00000, 4.620, 0.00000, 4.630, 0.00000
4.640, 0.00000, 4.650, 0.00000, 4.660, 0.00000, 4.670, 0.00000
4.680, 0.00000, 4.690, 0.00000, 4.700, 0.00000, 4.710, 0.00000
4.720, 0.00000, 4.730, 0.00000, 4.740, 0.00000, 4.750, 0.00000
4.760, 0.00000, 4.770, 0.00000, 4.780, 0.00000, 4.790, 0.00000
4.800, 0.00000, 4.810, 0.00000, 4.820, 0.00000, 4.830, 0.00000
4.840, 0.00000, 4.850, 0.00000, 4.860, 0.00000, 4.870, 0.00000
4.880, 0.00000, 4.890, 0.00000, 4.900, 0.00000, 4.910, 0.00000
4.920, 0.00000, 4.930, 0.00000, 4.940, 0.00000, 4.950, 0.00000
4.960, 0.00000, 4.970, 0.00000, 4.980, 0.00000, 4.990, 0.00000
5.000, 0.00000, 5.010, 0.00000, 5.020, 0.00000, 5.030, 0.00000
5.040, 0.00000, 5.050, 0.00000, 5.060, 0.00000, 5.070, 0.00000
5.080, 0.00000, 5.090, 0.00000, 5.100, 0.00000, 5.110, 0.00000
5.120, 0.00000, 5.130, 0.00000, 5.140, 0.00000, 5.150, 0.00000
5.160, 0.00000, 5.170, 0.00000, 5.180, 0.00000, 5.190, 0.00000
5.200, 0.00000, 5.210, 0.00000, 5.220, 0.00000, 5.230, 0.00000
5.240, 0.00000, 5.250, 0.00000, 5.260, 0.00000, 5.270, 0.00000
5.280, 0.00000, 5.290, 0.00000, 5.300, 0.00000, 5.310, 0.00000
5.320, 0.00000, 5.330, 0.00000, 5.340, 0.00000, 5.350, 0.00000
5.360, 0.00000, 5.370, 0.00000, 5.380, 0.00000, 5.390, 0.00000
5.400, 0.00000, 5.410, 0.00000, 5.420, 0.00000, 5.430, 0.00000
5.440, 0.00000, 5.450, 0.00000, 5.460, 0.00000, 5.470, 0.00000
5.480, 0.00000, 5.490, 0.00000, 5.500, 0.00000, 5.510, 0.00000
5.520, 0.00000, 5.530, 0.00000, 5.540, 0.00000, 5.550, 0.00000
5.560, 0.00000, 5.570, 0.00000, 5.580, 0.00000, 5.590, 0.00000
5.600, 0.00000, 5.610, 0.00000, 5.620, 0.00000, 5.630, 0.00000
5.640, 0.00000, 5.650, 0.00000, 5.660, 0.00000, 5.670, 0.00000
5.680, 0.00000, 5.690, 0.00000, 5.700, 0.00000, 5.710, 0.00000
5.720, 0.00000, 5.730, 0.00000, 5.740, 0.00000, 5.750, 0.00000
5.760, 0.00000, 5.770, 0.00000, 5.780, 0.00000, 5.790, 0.00000
5.800, 0.00000, 5.810, 0.00000, 5.820, 0.00000, 5.830, 0.00000
5.840, 0.00000, 5.850, 0.00000, 5.860, 0.00000, 5.870, 0.00000
5.880, 0.00000, 5.890, 0.00000, 5.900, 0.00000, 5.910, 0.00000
5.920, 0.00000, 5.930, 0.00000, 5.940, 0.00000, 5.950, 0.00000
5.960, 0.00000, 5.970, 0.00000, 5.980, 0.00000, 5.990, 0.00000
6.000, 0.00000, 6.010, 173.37802, 6.020, 346.75604, 6.030, 520.13406
6.040, 693.51208, 6.050, 866.89010, 6.060, 823.54560, 6.070, 780.20109
6.080, 736.85659, 6.090, 693.51208, 6.100, 650.16758, 6.110, 606.82307
6.120, 563.47857, 6.130, 520.13406, 6.140, 476.78956, 6.150, 433.44505
6.160, 390.10055, 6.170, 346.75604, 6.180, 303.41154, 6.190, 260.06703
6.200, 216.72253, 6.210, 173.37802, 6.220, 130.03352, 6.230, 86.68901
6.240, 43.34451, 6.250, 0.00000, 6.260, 0.00000, 6.270, 0.00000
6.280, 0.00000, 6.290, 0.00000, 6.300, 0.00000, 6.310, 0.00000
6.320, 0.00000, 6.330, 0.00000, 6.340, 0.00000, 6.350, 0.00000
6.360, 0.00000, 6.370, 0.00000, 6.380, 0.00000, 6.390, 0.00000
6.400, 0.00000, 6.410, 0.00000, 6.420, 0.00000, 6.430, 0.00000
6.440, 0.00000, 6.450, 0.00000, 6.460, 0.00000, 6.470, 0.00000
6.480, 0.00000, 6.490, 0.00000, 6.500, 0.00000, 6.510, 0.00000
6.520, 0.00000, 6.530, 0.00000, 6.540, 0.00000, 6.550, 0.00000
6.560, 0.00000, 6.570, 0.00000, 6.580, 0.00000, 6.590, 0.00000
6.600, 0.00000, 6.610, 0.00000, 6.620, 0.00000, 6.630, 0.00000
6.640, 0.00000, 6.650, 0.00000, 6.660, 0.00000, 6.670, 0.00000
6.680, 0.00000, 6.690, 0.00000, 6.700, 0.00000, 6.710, 0.00000
6.720, 0.00000, 6.730, 0.00000, 6.740, 0.00000, 6.750, 0.00000
6.760, 0.00000, 6.770, 0.00000, 6.780, 0.00000, 6.790, 0.00000
6.800, 0.00000, 6.810, 0.00000, 6.820, 0.00000, 6.830, 0.00000
6.840, 0.00000, 6.850, 0.00000, 6.860, 0.00000, 6.870, 0.00000
6.880, 0.00000, 6.890, 0.00000, 6.900, 0.00000, 6.910, 0.00000
6.920, 0.00000, 6.930, 0.00000, 6.940, 0.00000, 6.950, 0.00000
6.960, 0.00000, 6.970, 0.00000, 6.980, 0.00000, 6.990, 0.00000
7.000, 0.00000, 7.010, 0.00000, 7.020, 0.00000, 7.030, 0.00000
7.040, 0.00000, 7.050, 0.00000, 7.060, 0.00000, 7.070, 0.00000
7.080, 0.00000, 7.090, 0.00000, 7.100, 0.00000, 7.110, 0.00000
7.120, 0.00000, 7.130, 0.00000, 7.140, 0.00000, 7.150, 0.00000
7.160, 0.00000, 7.170, 0.00000, 7.180, 0.00000, 7.190, 0.00000
7.200, 0.00000, 7.210, 0.00000, 7.220, 0.00000, 7.230, 0.00000
7.240, 0.00000, 7.250, 0.00000, 7.260, 0.00000, 7.270, 0.00000
7.280, 0.00000, 7.290, 0.00000, 7.300, 0.00000, 7.310, 0.00000
7.320, 0.00000, 7.330, 0.00000, 7.340, 0.00000, 7.350, 0.00000
7.360, 0.00000, 7.370, 0.00000, 7.380, 0.00000, 7.390, 0.00000
7.400, 0.00000, 7.410, 0.00000, 7.420, 0.00000, 7.430, 0.00000
7.440, 0.00000, 7.450, 0.00000, 7.460, 0.00000, 7.470, 0.00000
7.480, 0.00000, 7.490, 0.00000, 7.500, 0.00000, 7.510, 0.00000
7.520, 0.00000, 7.530, 0.00000, 7.540, 0.00000, 7.550, 0.00000
7.560, 0.00000, 7.570, 0.00000, 7.580, 0.00000, 7.590, 0.00000
7.600, 0.00000, 7.610, 0.00000, 7.620, 0.00000, 7.630, 0.00000
7.640, 0.00000, 7.650, 0.00000, 7.660, 0.00000, 7.670, 0.00000
7.680, 0.00000, 7.690, 0.00000, 7.700, 0.00000, 7.710, 0.00000
7.720, 0.00000, 7.730, 0.00000, 7.740, 0.00000, 7.750, 0.00000
7.760, 0.00000, 7.770, 0.00000, 7.780, 0.00000, 7.790, 0.00000
7.800, 0.00000, 7.810, 0.00000, 7.820, 0.00000, 7.830, 0.00000
7.840, 0.00000, 7.850, 0.00000, 7.860, 0.00000, 7.870, 0.00000
7.880, 0.00000, 7.890, 0.00000, 7.900, 0.00000, 7.910, 0.00000
7.920, 0.00000, 7.930, 0.00000, 7.940, 0.00000, 7.950, 0.00000
7.960, 0.00000, 7.970, 0.00000, 7.980, 0.00000, 7.990, 0.00000
8.000, 0.00000, 8.010, 154.36385, 8.020, 308.72770, 8.030, 463.09155
8.040, 617.45540, 8.050, 771.81925, 8.060, 733.22829, 8.070, 694.63733
8.080, 656.04636, 8.090, 617.45540, 8.100, 578.86444, 8.110, 540.27348
8.120, 501.68251, 8.130, 463.09155, 8.140, 424.50059, 8.150, 385.90963
8.160, 347.31866, 8.170, 308.72770, 8.180, 270.13674, 8.190, 231.54578
8.200, 192.95481, 8.210, 154.36385, 8.220, 115.77289, 8.230, 77.18193
8.240, 38.59096, 8.250, 0.00000, 8.260, 0.00000, 8.270, 0.00000
8.280, 0.00000, 8.290, 0.00000, 8.300, 0.00000, 8.310, 0.00000
8.320, 0.00000, 8.330, 0.00000, 8.340, 0.00000, 8.350, 0.00000
8.360, 0.00000, 8.370, 0.00000, 8.380, 0.00000, 8.390, 0.00000
8.400, 0.00000, 8.410, 0.00000, 8.420, 0.00000, 8.430, 0.00000
8.440, 0.00000, 8.450, 0.00000, 8.460, 0.00000, 8.470, 0.00000
8.480, 0.00000, 8.490, 0.00000, 8.500, 0.00000, 8.510, 0.00000
8.520, 0.00000, 8.530, 0.00000, 8.540, 0.00000, 8.550, 0.00000
8.560, 0.00000, 8.570, 0.00000, 8.580, 0.00000, 8.590, 0.00000
8.600, 0.00000, 8.610, 0.00000, 8.620, 0.00000, 8.630, 0.00000
8.640, 0.00000, 8.650, 0.00000, 8.660, 0.00000, 8.670, 0.00000
8.680, 0.00000, 8.690, 0.00000, 8.700, 0.00000, 8.710, 0.00000
8.720, 0.00000, 8.730, 0.00000, 8.740, 0.00000, 8.750, 0.00000
8.760, 0.00000, 8.770, 0.00000, 8.780, 0.00000, 8.790, 0.00000
8.800, 0.00000, 8.810, 0.00000, 8.820, 0.00000, 8.830, 0.00000
8.840, 0.00000, 8.850, 0.00000, 8.860, 0.00000, 8.870, 0.00000
8.880, 0.00000, 8.890, 0.00000, 8.900, 0.00000, 8.910, 0.00000
8.920, 0.00000, 8.930, 0.00000, 8.940, 0.00000, 8.950, 0.00000
8.960, 0.00000, 8.970, 0.00000, 8.980, 0.00000, 8.990, 0.00000
9.000, 0.00000, 9.010, 0.00000, 9.020, 0.00000, 9.030, 0.00000
9.040, 0.00000, 9.050, 0.00000, 9.060, 0.00000, 9.070, 0.00000
9.080, 0.00000, 9.090, 0.00000, 9.100, 0.00000, 9.110, 0.00000
9.120, 0.00000, 9.130, 0.00000, 9.140, 0.00000, 9.150, 0.00000
9.160, 0.00000, 9.170, 0.00000, 9.180, 0.00000, 9.190, 0.00000
9.200, 0.00000, 9.210, 0.00000, 9.220, 0.00000, 9.230, 0.00000
9.240, 0.00000, 9.250, 0.00000, 9.260, 0.00000, 9.270, 0.00000
9.280, 0.00000, 9.290, 0.00000, 9.300, 0.00000, 9.310, 0.00000
9.320, 0.00000, 9.330, 0.00000, 9.340, 0.00000, 9.350, 0.00000
9.360, 0.00000, 9.370, 0.00000, 9.380, 0.00000, 9.390, 0.00000
9.400, 0.00000, 9.410, 0.00000, 9.420, 0.00000, 9.430, 0.00000
9.440, 0.00000, 9.450, 0.00000, 9.460, 0.00000, 9.470, 0.00000
9.480, 0.00000, 9.490, 0.00000, 9.500, 0.00000, 9.510, 0.00000
9.520, 0.00000, 9.530, 0.00000, 9.540, 0.00000, 9.550, 0.00000
9.560, 0.00000, 9.570, 0.00000, 9.580, 0.00000, 9.590, 0.00000
9.600, 0.00000, 9.610, 0.00000, 9.620, 0.00000, 9.630, 0.00000
9.640, 0.00000, 9.650, 0.00000, 9.660, 0.00000, 9.670, 0.00000
9.680, 0.00000, 9.690, 0.00000, 9.700, 0.00000, 9.710, 0.00000
9.720, 0.00000, 9.730, 0.00000, 9.740, 0.00000, 9.750, 0.00000
9.760, 0.00000, 9.770, 0.00000, 9.780, 0.00000, 9.790, 0.00000
9.800, 0.00000, 9.810, 0.00000, 9.820, 0.00000, 9.830, 0.00000
9.840, 0.00000, 9.850, 0.00000, 9.860, 0.00000, 9.870, 0.00000
9.880, 0.00000, 9.890, 0.00000, 9.900, 0.00000, 9.910, 0.00000
9.920, 0.00000, 9.930, 0.00000, 9.940, 0.00000, 9.950, 0.00000
9.960, 0.00000, 9.970, 0.00000, 9.980, 0.00000, 9.990, 0.00000
*AMPLITUDE, NAME=ROW4
0.000, 0.00000, 0.010, 762.14722, 0.020, 1524.29444, 0.030, 2286.44166
0.040, 3048.58888, 0.050, 3810.73610, 0.060, 3620.19930, 0.070, 3429.66249
0.080, 3239.12569, 0.090, 3048.58888, 0.100, 2858.05208, 0.110, 2667.51527
0.120, 2476.97847, 0.130, 2286.44166, 0.140, 2095.90486, 0.150, 1905.36805
0.160, 1714.83125, 0.170, 1524.29444, 0.180, 1333.75764, 0.190, 1143.22083
0.200, 952.68403, 0.210, 762.14722, 0.220, 571.61042, 0.230, 381.07361
0.240, 190.53681, 0.250, 0.00000, 0.260, 0.00000, 0.270, 0.00000
0.280, 0.00000, 0.290, 0.00000, 0.300, 0.00000, 0.310, 0.00000
0.320, 0.00000, 0.330, 0.00000, 0.340, 0.00000, 0.350, 0.00000
0.360, 0.00000, 0.370, 0.00000, 0.380, 0.00000, 0.390, 0.00000
0.400, 0.00000, 0.410, 0.00000, 0.420, 0.00000, 0.430, 0.00000
0.440, 0.00000, 0.450, 0.00000, 0.460, 0.00000, 0.470, 0.00000
0.480, 0.00000, 0.490, 0.00000, 0.500, 0.00000, 0.510, 0.00000
0.520, 0.00000, 0.530, 0.00000, 0.540, 0.00000, 0.550, 0.00000
0.560, 0.00000, 0.570, 0.00000, 0.580, 0.00000, 0.590, 0.00000
0.600, 0.00000, 0.610, 0.00000, 0.620, 0.00000, 0.630, 0.00000
0.640, 0.00000, 0.650, 0.00000, 0.660, 0.00000, 0.670, 0.00000
0.680, 0.00000, 0.690, 0.00000, 0.700, 0.00000, 0.710, 0.00000
0.720, 0.00000, 0.730, 0.00000, 0.740, 0.00000, 0.750, 0.00000
0.760, 0.00000, 0.770, 0.00000, 0.780, 0.00000, 0.790, 0.00000
0.800, 0.00000, 0.810, 0.00000, 0.820, 0.00000, 0.830, 0.00000
0.840, 0.00000, 0.850, 0.00000, 0.860, 0.00000, 0.870, 0.00000
0.880, 0.00000, 0.890, 0.00000, 0.900, 0.00000, 0.910, 0.00000
0.920, 0.00000, 0.930, 0.00000, 0.940, 0.00000, 0.950, 0.00000
0.960, 0.00000, 0.970, 0.00000, 0.980, 0.00000, 0.990, 0.00000
1.000, 0.00000, 1.010, 0.00000, 1.020, 0.00000, 1.030, 0.00000
1.040, 0.00000, 1.050, 0.00000, 1.060, 0.00000, 1.070, 0.00000
1.080, 0.00000, 1.090, 0.00000, 1.100, 0.00000, 1.110, 0.00000
1.120, 0.00000, 1.130, 0.00000, 1.140, 0.00000, 1.150, 0.00000
1.160, 0.00000, 1.170, 0.00000, 1.180, 0.00000, 1.190, 0.00000
1.200, 0.00000, 1.210, 0.00000, 1.220, 0.00000, 1.230, 0.00000
1.240, 0.00000, 1.250, 0.00000, 1.260, 0.00000, 1.270, 0.00000
1.280, 0.00000, 1.290, 0.00000, 1.300, 0.00000, 1.310, 0.00000
1.320, 0.00000, 1.330, 0.00000, 1.340, 0.00000, 1.350, 0.00000
1.360, 0.00000, 1.370, 0.00000, 1.380, 0.00000, 1.390, 0.00000
1.400, 0.00000, 1.410, 0.00000, 1.420, 0.00000, 1.430, 0.00000
1.440, 0.00000, 1.450, 0.00000, 1.460, 0.00000, 1.470, 0.00000
1.480, 0.00000, 1.490, 0.00000, 1.500, 0.00000, 1.510, 0.00000
1.520, 0.00000, 1.530, 0.00000, 1.540, 0.00000, 1.550, 0.00000
1.560, 0.00000, 1.570, 0.00000, 1.580, 0.00000, 1.590, 0.00000
1.600, 0.00000, 1.610, 0.00000, 1.620, 0.00000, 1.630, 0.00000
1.640, 0.00000, 1.650, 0.00000, 1.660, 0.00000, 1.670, 0.00000
1.680, 0.00000, 1.690, 0.00000, 1.700, 0.00000, 1.710, 0.00000
1.720, 0.00000, 1.730, 0.00000, 1.740, 0.00000, 1.750, 0.00000
1.760, 0.00000, 1.770, 0.00000, 1.780, 0.00000, 1.790, 0.00000
1.800, 0.00000, 1.810, 0.00000, 1.820, 0.00000, 1.830, 0.00000
1.840, 0.00000, 1.850, 0.00000, 1.860, 0.00000, 1.870, 0.00000
1.880, 0.00000, 1.890, 0.00000, 1.900, 0.00000, 1.910, 0.00000
1.920, 0.00000, 1.930, 0.00000, 1.940, 0.00000, 1.950, 0.00000
1.960, 0.00000, 1.970, 0.00000, 1.980, 0.00000, 1.990, 0.00000
2.000, 0.00000, 2.010, 550.95895, 2.020, 1101.91790, 2.030, 1652.87684
2.040, 2203.83579, 2.050, 2754.79474, 2.060, 2617.05500, 2.070, 2479.31527
2.080, 2341.57553, 2.090, 2203.83579, 2.100, 2066.09606, 2.110, 1928.35632
2.120, 1790.61658, 2.130, 1652.87684, 2.140, 1515.13711, 2.150, 1377.39737
2.160, 1239.65763, 2.170, 1101.91790, 2.180, 964.17816, 2.190, 826.43842
2.200, 688.69869, 2.210, 550.95895, 2.220, 413.21921, 2.230, 275.47947
2.240, 137.73974, 2.250, 0.00000, 2.260, 0.00000, 2.270, 0.00000
2.280, 0.00000, 2.290, 0.00000, 2.300, 0.00000, 2.310, 0.00000
2.320, 0.00000, 2.330, 0.00000, 2.340, 0.00000, 2.350, 0.00000
2.360, 0.00000, 2.370, 0.00000, 2.380, 0.00000, 2.390, 0.00000
2.400, 0.00000, 2.410, 0.00000, 2.420, 0.00000, 2.430, 0.00000
2.440, 0.00000, 2.450, 0.00000, 2.460, 0.00000, 2.470, 0.00000
2.480, 0.00000, 2.490, 0.00000, 2.500, 0.00000, 2.510, 0.00000
2.520, 0.00000, 2.530, 0.00000, 2.540, 0.00000, 2.550, 0.00000
2.560, 0.00000, 2.570, 0.00000, 2.580, 0.00000, 2.590, 0.00000
2.600, 0.00000, 2.610, 0.00000, 2.620, 0.00000, 2.630, 0.00000
2.640, 0.00000, 2.650, 0.00000, 2.660, 0.00000, 2.670, 0.00000
2.680, 0.00000, 2.690, 0.00000, 2.700, 0.00000, 2.710, 0.00000
2.720, 0.00000, 2.730, 0.00000, 2.740, 0.00000, 2.750, 0.00000
2.760, 0.00000, 2.770, 0.00000, 2.780, 0.00000, 2.790, 0.00000
2.800, 0.00000, 2.810, 0.00000, 2.820, 0.00000, 2.830, 0.00000
2.840, 0.00000, 2.850, 0.00000, 2.860, 0.00000, 2.870, 0.00000
2.880, 0.00000, 2.890, 0.00000, 2.900, 0.00000, 2.910, 0.00000
2.920, 0.00000, 2.930, 0.00000, 2.940, 0.00000, 2.950, 0.00000
2.960, 0.00000, 2.970, 0.00000, 2.980, 0.00000, 2.990, 0.00000
3.000, 0.00000, 3.010, 0.00000, 3.020, 0.00000, 3.030, 0.00000
3.040, 0.00000, 3.050, 0.00000, 3.060, 0.00000, 3.070, 0.00000
3.080, 0.00000, 3.090, 0.00000, 3.100, 0.00000, 3.110, 0.00000
3.120, 0.00000, 3.130, 0.00000, 3.140, 0.00000, 3.150, 0.00000
3.160, 0.00000, 3.170, 0.00000, 3.180, 0.00000, 3.190, 0.00000
3.200, 0.00000, 3.210, 0.00000, 3.220, 0.00000, 3.230, 0.00000
3.240, 0.00000, 3.250, 0.00000, 3.260, 0.00000, 3.270, 0.00000
3.280, 0.00000, 3.290, 0.00000, 3.300, 0.00000, 3.310, 0.00000
3.320, 0.00000, 3.330, 0.00000, 3.340, 0.00000, 3.350, 0.00000
3.360, 0.00000, 3.370, 0.00000, 3.380, 0.00000, 3.390, 0.00000
3.400, 0.00000, 3.410, 0.00000, 3.420, 0.00000, 3.430, 0.00000
3.440, 0.00000, 3.450, 0.00000, 3.460, 0.00000, 3.470, 0.00000
3.480, 0.00000, 3.490, 0.00000, 3.500, 0.00000, 3.510, 0.00000
3.520, 0.00000, 3.530, 0.00000, 3.540, 0.00000, 3.550, 0.00000
3.560, 0.00000, 3.570, 0.00000, 3.580, 0.00000, 3.590, 0.00000
3.600, 0.00000, 3.610, 0.00000, 3.620, 0.00000, 3.630, 0.00000
3.640, 0.00000, 3.650, 0.00000, 3.660, 0.00000, 3.670, 0.00000
3.680, 0.00000, 3.690, 0.00000, 3.700, 0.00000, 3.710, 0.00000
3.720, 0.00000, 3.730, 0.00000, 3.740, 0.00000, 3.750, 0.00000
3.760, 0.00000, 3.770, 0.00000, 3.780, 0.00000, 3.790, 0.00000
3.800, 0.00000, 3.810, 0.00000, 3.820, 0.00000, 3.830, 0.00000
3.840, 0.00000, 3.850, 0.00000, 3.860, 0.00000, 3.870, 0.00000
3.880, 0.00000, 3.890, 0.00000, 3.900, 0.00000, 3.910, 0.00000
3.920, 0.00000, 3.930, 0.00000, 3.940, 0.00000, 3.950, 0.00000
3.960, 0.00000, 3.970, 0.00000, 3.980, 0.00000, 3.990, 0.00000
4.000, 0.00000, 4.010, 451.48903, 4.020, 902.97807, 4.030, 1354.46710
4.040, 1805.95614, 4.050, 2257.44517, 4.060, 2144.57291, 4.070, 2031.70066
4.080, 1918.82840, 4.090, 1805.95614, 4.100, 1693.08388, 4.110, 1580.21162
4.120, 1467.33936, 4.130, 1354.46710, 4.140, 1241.59485, 4.150, 1128.72259
4.160, 1015.85033, 4.170, 902.97807, 4.180, 790.10581, 4.190, 677.23355
4.200, 564.36129, 4.210, 451.48903, 4.220, 338.61678, 4.230, 225.74452
4.240, 112.87226, 4.250, 0.00000, 4.260, 0.00000, 4.270, 0.00000
4.280, 0.00000, 4.290, 0.00000, 4.300, 0.00000, 4.310, 0.00000
4.320, 0.00000, 4.330, 0.00000, 4.340, 0.00000, 4.350, 0.00000
4.360, 0.00000, 4.370, 0.00000, 4.380, 0.00000, 4.390, 0.00000
4.400, 0.00000, 4.410, 0.00000, 4.420, 0.00000, 4.430, 0.00000
4.440, 0.00000, 4.450, 0.00000, 4.460, 0.00000, 4.470, 0.00000
4.480, 0.00000, 4.490, 0.00000, 4.500, 0.00000, 4.510, 0.00000
4.520, 0.00000, 4.530, 0.00000, 4.540, 0.00000, 4.550, 0.00000
4.560, 0.00000, 4.570, 0.00000, 4.580, 0.00000, 4.590, 0.00000
4.600, 0.00000, 4.610, 0.00000, 4.620, 0.00000, 4.630, 0.00000
4.640, 0.00000, 4.650, 0.00000, 4.660, 0.00000, 4.670, 0.00000
4.680, 0.00000, 4.690, 0.00000, 4.700, 0.00000, 4.710, 0.00000
4.720, 0.00000, 4.730, 0.00000, 4.740, 0.00000, 4.750, 0.00000
4.760, 0.00000, 4.770, 0.00000, 4.780, 0.00000, 4.790, 0.00000
4.800, 0.00000, 4.810, 0.00000, 4.820, 0.00000, 4.830, 0.00000
4.840, 0.00000, 4.850, 0.00000, 4.860, 0.00000, 4.870, 0.00000
4.880, 0.00000, 4.890, 0.00000, 4.900, 0.00000, 4.910, 0.00000
4.920, 0.00000, 4.930, 0.00000, 4.940, 0.00000, 4.950, 0.00000
4.960, 0.00000, 4.970, 0.00000, 4.980, 0.00000, 4.990, 0.00000
5.000, 0.00000, 5.010, 0.00000, 5.020, 0.00000, 5.030, 0.00000
5.040, 0.00000, 5.050, 0.00000, 5.060, 0.00000, 5.070, 0.00000
5.080, 0.00000, 5.090, 0.00000, 5.100, 0.00000, 5.110, 0.00000
5.120, 0.00000, 5.130, 0.00000, 5.140, 0.00000, 5.150, 0.00000
5.160, 0.00000, 5.170, 0.00000, 5.180, 0.00000, 5.190, 0.00000
5.200, 0.00000, 5.210, 0.00000, 5.220, 0.00000, 5.230, 0.00000
5.240, 0.00000, 5.250, 0.00000, 5.260, 0.00000, 5.270, 0.00000
5.280, 0.00000, 5.290, 0.00000, 5.300, 0.00000, 5.310, 0.00000
5.320, 0.00000, 5.330, 0.00000, 5.340, 0.00000, 5.350, 0.00000
5.360, 0.00000, 5.370, 0.00000, 5.380, 0.00000, 5.390, 0.00000
5.400, 0.00000, 5.410, 0.00000, 5.420, 0.00000, 5.430, 0.00000
5.440, 0.00000, 5.450, 0.00000, 5.460, 0.00000, 5.470, 0.00000
5.480, 0.00000, 5.490, 0.00000, 5.500, 0.00000, 5.510, 0.00000
5.520, 0.00000, 5.530, 0.00000, 5.540, 0.00000, 5.550, 0.00000
5.560, 0.00000, 5.570, 0.00000, 5.580, 0.00000, 5.590, 0.00000
5.600, 0.00000, 5.610, 0.00000, 5.620, 0.00000, 5.630, 0.00000
5.640, 0.00000, 5.650, 0.00000, 5.660, 0.00000, 5.670, 0.00000
5.680, 0.00000, 5.690, 0.00000, 5.700, 0.00000, 5.710, 0.00000
5.720, 0.00000, 5.730, 0.00000, 5.740, 0.00000, 5.750, 0.00000
5.760, 0.00000, 5.770, 0.00000, 5.780, 0.00000, 5.790, 0.00000
5.800, 0.00000, 5.810, 0.00000, 5.820, 0.00000, 5.830, 0.00000
5.840, 0.00000, 5.850, 0.00000, 5.860, 0.00000, 5.870, 0.00000
5.880, 0.00000, 5.890, 0.00000, 5.900, 0.00000, 5.910, 0.00000
5.920, 0.00000, 5.930, 0.00000, 5.940, 0.00000, 5.950, 0.00000
5.960, 0.00000, 5.970, 0.00000, 5.980, 0.00000, 5.990, 0.00000
6.000, 0.00000, 6.010, 390.15825, 6.020, 780.31650, 6.030, 1170.47474
6.040, 1560.63299, 6.050, 1950.79124, 6.060, 1853.25168, 6.070, 1755.71212
6.080, 1658.17255, 6.090, 1560.63299, 6.100, 1463.09343, 6.110, 1365.55387
6.120, 1268.01431, 6.130, 1170.47474, 6.140, 1072.93518, 6.150, 975.39562
6.160, 877.85606, 6.170, 780.31650, 6.180, 682.77693, 6.190, 585.23737
6.200, 487.69781, 6.210, 390.15825, 6.220, 292.61869, 6.230, 195.07912
6.240, 97.53956, 6.250, 0.00000, 6.260, 0.00000, 6.270, 0.00000
6.280, 0.00000, 6.290, 0.00000, 6.300, 0.00000, 6.310, 0.00000
6.320, 0.00000, 6.330, 0.00000, 6.340, 0.00000, 6.350, 0.00000
6.360, 0.00000, 6.370, 0.00000, 6.380, 0.00000, 6.390, 0.00000
6.400, 0.00000, 6.410, 0.00000, 6.420, 0.00000, 6.430, 0.00000
6.440, 0.00000, 6.450, 0.00000, 6.460, 0.00000, 6.470, 0.00000
6.480, 0.00000, 6.490, 0.00000, 6.500, 0.00000, 6.510, 0.00000
6.520, 0.00000, 6.530, 0.00000, 6.540, 0.00000, 6.550, 0.00000
6.560, 0.00000, 6.570, 0.00000, 6.580, 0.00000, 6.590, 0.00000
6.600, 0.00000, 6.610, 0.00000, 6.620, 0.00000, 6.630, 0.00000
6.640, 0.00000, 6.650, 0.00000, 6.660, 0.00000, 6.670, 0.00000
6.680, 0.00000, 6.690, 0.00000, 6.700, 0.00000, 6.710, 0.00000
6.720, 0.00000, 6.730, 0.00000, 6.740, 0.00000, 6.750, 0.00000
6.760, 0.00000, 6.770, 0.00000, 6.780, 0.00000, 6.790, 0.00000
6.800, 0.00000, 6.810, 0.00000, 6.820, 0.00000, 6.830, 0.00000
6.840, 0.00000, 6.850, 0.00000, 6.860, 0.00000, 6.870, 0.00000
6.880, 0.00000, 6.890, 0.00000, 6.900, 0.00000, 6.910, 0.00000
6.920, 0.00000, 6.930, 0.00000, 6.940, 0.00000, 6.950, 0.00000
6.960, 0.00000, 6.970, 0.00000, 6.980, 0.00000, 6.990, 0.00000
7.000, 0.00000, 7.010, 0.00000, 7.020, 0.00000, 7.030, 0.00000
7.040, 0.00000, 7.050, 0.00000, 7.060, 0.00000, 7.070, 0.00000
7.080, 0.00000, 7.090, 0.00000, 7.100, 0.00000, 7.110, 0.00000
7.120, 0.00000, 7.130, 0.00000, 7.140, 0.00000, 7.150, 0.00000
7.160, 0.00000, 7.170, 0.00000, 7.180, 0.00000, 7.190, 0.00000
7.200, 0.00000, 7.210, 0.00000, 7.220, 0.00000, 7.230, 0.00000
7.240, 0.00000, 7.250, 0.00000, 7.260, 0.00000, 7.270, 0.00000
7.280, 0.00000, 7.290, 0.00000, 7.300, 0.00000, 7.310, 0.00000
7.320, 0.00000, 7.330, 0.00000, 7.340, 0.00000, 7.350, 0.00000
7.360, 0.00000, 7.370, 0.00000, 7.380, 0.00000, 7.390, 0.00000
7.400, 0.00000, 7.410, 0.00000, 7.420, 0.00000, 7.430, 0.00000
7.440, 0.00000, 7.450, 0.00000, 7.460, 0.00000, 7.470, 0.00000
7.480, 0.00000, 7.490, 0.00000, 7.500, 0.00000, 7.510, 0.00000
7.520, 0.00000, 7.530, 0.00000, 7.540, 0.00000, 7.550, 0.00000
7.560, 0.00000, 7.570, 0.00000, 7.580, 0.00000, 7.590, 0.00000
7.600, 0.00000, 7.610, 0.00000, 7.620, 0.00000, 7.630, 0.00000
7.640, 0.00000, 7.650, 0.00000, 7.660, 0.00000, 7.670, 0.00000
7.680, 0.00000, 7.690, 0.00000, 7.700, 0.00000, 7.710, 0.00000
7.720, 0.00000, 7.730, 0.00000, 7.740, 0.00000, 7.750, 0.00000
7.760, 0.00000, 7.770, 0.00000, 7.780, 0.00000, 7.790, 0.00000
7.800, 0.00000, 7.810, 0.00000, 7.820, 0.00000, 7.830, 0.00000
7.840, 0.00000, 7.850, 0.00000, 7.860, 0.00000, 7.870, 0.00000
7.880, 0.00000, 7.890, 0.00000, 7.900, 0.00000, 7.910, 0.00000
7.920, 0.00000, 7.930, 0.00000, 7.940, 0.00000, 7.950, 0.00000
7.960, 0.00000, 7.970, 0.00000, 7.980, 0.00000, 7.990, 0.00000
8.000, 0.00000, 8.010, 347.37004, 8.020, 694.74007, 8.030, 1042.11011
8.040, 1389.48014, 8.050, 1736.85018, 8.060, 1650.00767, 8.070, 1563.16516
8.080, 1476.32265, 8.090, 1389.48014, 8.100, 1302.63764, 8.110, 1215.79513
8.120, 1128.95262, 8.130, 1042.11011, 8.140, 955.26760, 8.150, 868.42509
8.160, 781.58258, 8.170, 694.74007, 8.180, 607.89756, 8.190, 521.05505
8.200, 434.21255, 8.210, 347.37004, 8.220, 260.52753, 8.230, 173.68502
8.240, 86.84251, 8.250, 0.00000, 8.260, 0.00000, 8.270, 0.00000
8.280, 0.00000, 8.290, 0.00000, 8.300, 0.00000, 8.310, 0.00000
8.320, 0.00000, 8.330, 0.00000, 8.340, 0.00000, 8.350, 0.00000
8.360, 0.00000, 8.370, 0.00000, 8.380, 0.00000, 8.390, 0.00000
8.400, 0.00000, 8.410, 0.00000, 8.420, 0.00000, 8.430, 0.00000
8.440, 0.00000, 8.450, 0.00000, 8.460, 0.00000, 8.470, 0.00000
8.480, 0.00000, 8.490, 0.00000, 8.500, 0.00000, 8.510, 0.00000
8.520, 0.00000, 8.530, 0.00000, 8.540, 0.00000, 8.550, 0.00000
8.560, 0.00000, 8.570, 0.00000, 8.580, 0.00000, 8.590, 0.00000
8.600, 0.00000, 8.610, 0.00000, 8.620, 0.00000, 8.630, 0.00000
8.640, 0.00000, 8.650, 0.00000, 8.660, 0.00000, 8.670, 0.00000
8.680, 0.00000, 8.690, 0.00000, 8.700, 0.00000, 8.710, 0.00000
8.720, 0.00000, 8.730, 0.00000, 8.740, 0.00000, 8.750, 0.00000
8.760, 0.00000, 8.770, 0.00000, 8.780, 0.00000, 8.790, 0.00000
8.800, 0.00000, 8.810, 0.00000, 8.820, 0.00000, 8.830, 0.00000
8.840, 0.00000, 8.850, 0.00000, 8.860, 0.00000, 8.870, 0.00000
8.880, 0.00000, 8.890, 0.00000, 8.900, 0.00000, 8.910, 0.00000
8.920, 0.00000, 8.930, 0.00000, 8.940, 0.00000, 8.950, 0.00000
8.960, 0.00000, 8.970, 0.00000, 8.980, 0.00000, 8.990, 0.00000
9.000, 0.00000, 9.010, 0.00000, 9.020, 0.00000, 9.030, 0.00000
9.040, 0.00000, 9.050, 0.00000, 9.060, 0.00000, 9.070, 0.00000
9.080, 0.00000, 9.090, 0.00000, 9.100, 0.00000, 9.110, 0.00000
9.120, 0.00000, 9.130, 0.00000, 9.140, 0.00000, 9.150, 0.00000
9.160, 0.00000, 9.170, 0.00000, 9.180, 0.00000, 9.190, 0.00000
9.200, 0.00000, 9.210, 0.00000, 9.220, 0.00000, 9.230, 0.00000
9.240, 0.00000, 9.250, 0.00000, 9.260, 0.00000, 9.270, 0.00000
9.280, 0.00000, 9.290, 0.00000, 9.300, 0.00000, 9.310, 0.00000
9.320, 0.00000, 9.330, 0.00000, 9.340, 0.00000, 9.350, 0.00000
9.360, 0.00000, 9.370, 0.00000, 9.380, 0.00000, 9.390, 0.00000
9.400, 0.00000, 9.410, 0.00000, 9.420, 0.00000, 9.430, 0.00000
9.440, 0.00000, 9.450, 0.00000, 9.460, 0.00000, 9.470, 0.00000
9.480, 0.00000, 9.490, 0.00000, 9.500, 0.00000, 9.510, 0.00000
9.520, 0.00000, 9.530, 0.00000, 9.540, 0.00000, 9.550, 0.00000
9.560, 0.00000, 9.570, 0.00000, 9.580, 0.00000, 9.590, 0.00000
9.600, 0.00000, 9.610, 0.00000, 9.620, 0.00000, 9.630, 0.00000
9.640, 0.00000, 9.650, 0.00000, 9.660, 0.00000, 9.670, 0.00000
9.680, 0.00000, 9.690, 0.00000, 9.700, 0.00000, 9.710, 0.00000
9.720, 0.00000, 9.730, 0.00000, 9.740, 0.00000, 9.750, 0.00000
9.760, 0.00000, 9.770, 0.00000, 9.780, 0.00000, 9.790, 0.00000
9.800, 0.00000, 9.810, 0.00000, 9.820, 0.00000, 9.830, 0.00000
9.840, 0.00000, 9.850, 0.00000, 9.860, 0.00000, 9.870, 0.00000
9.880, 0.00000, 9.890, 0.00000, 9.900, 0.00000, 9.910, 0.00000
9.920, 0.00000, 9.930, 0.00000, 9.940, 0.00000, 9.950, 0.00000
9.960, 0.00000, 9.970, 0.00000, 9.980, 0.00000, 9.990, 0.00000
*AMPLITUDE, NAME=ROW5
0.000, 0.00000, 0.010, 1719.01642, 0.020, 3438.03283, 0.030, 5157.04925
0.040, 6876.06567, 0.050, 8595.08209, 0.060, 8165.32798, 0.070, 7735.57388
0.080, 7305.81977, 0.090, 6876.06567, 0.100, 6446.31156, 0.110, 6016.55746
0.120, 5586.80336, 0.130, 5157.04925, 0.140, 4727.29515, 0.150, 4297.54104
0.160, 3867.78694, 0.170, 3438.03283, 0.180, 3008.27873, 0.190, 2578.52463
0.200, 2148.77052, 0.210, 1719.01642, 0.220, 1289.26231, 0.230, 859.50821
0.240, 429.75410, 0.250, 0.00000, 0.260, 0.00000, 0.270, 0.00000
0.280, 0.00000, 0.290, 0.00000, 0.300, 0.00000, 0.310, 0.00000
0.320, 0.00000, 0.330, 0.00000, 0.340, 0.00000, 0.350, 0.00000
0.360, 0.00000, 0.370, 0.00000, 0.380, 0.00000, 0.390, 0.00000
0.400, 0.00000, 0.410, 0.00000, 0.420, 0.00000, 0.430, 0.00000
0.440, 0.00000, 0.450, 0.00000, 0.460, 0.00000, 0.470, 0.00000
0.480, 0.00000, 0.490, 0.00000, 0.500, 0.00000, 0.510, 0.00000
0.520, 0.00000, 0.530, 0.00000, 0.540, 0.00000, 0.550, 0.00000
0.560, 0.00000, 0.570, 0.00000, 0.580, 0.00000, 0.590, 0.00000
0.600, 0.00000, 0.610, 0.00000, 0.620, 0.00000, 0.630, 0.00000
0.640, 0.00000, 0.650, 0.00000, 0.660, 0.00000, 0.670, 0.00000
0.680, 0.00000, 0.690, 0.00000, 0.700, 0.00000, 0.710, 0.00000
0.720, 0.00000, 0.730, 0.00000, 0.740, 0.00000, 0.750, 0.00000
0.760, 0.00000, 0.770, 0.00000, 0.780, 0.00000, 0.790, 0.00000
0.800, 0.00000, 0.810, 0.00000, 0.820, 0.00000, 0.830, 0.00000
0.840, 0.00000, 0.850, 0.00000, 0.860, 0.00000, 0.870, 0.00000
0.880, 0.00000, 0.890, 0.00000, 0.900, 0.00000, 0.910, 0.00000
0.920, 0.00000, 0.930, 0.00000, 0.940, 0.00000, 0.950, 0.00000
0.960, 0.00000, 0.970, 0.00000, 0.980, 0.00000, 0.990, 0.00000
1.000, 0.00000, 1.010, 0.00000, 1.020, 0.00000, 1.030, 0.00000
1.040, 0.00000, 1.050, 0.00000, 1.060, 0.00000, 1.070, 0.00000
1.080, 0.00000, 1.090, 0.00000, 1.100, 0.00000, 1.110, 0.00000
1.120, 0.00000, 1.130, 0.00000, 1.140, 0.00000, 1.150, 0.00000
1.160, 0.00000, 1.170, 0.00000, 1.180, 0.00000, 1.190, 0.00000
1.200, 0.00000, 1.210, 0.00000, 1.220, 0.00000, 1.230, 0.00000
1.240, 0.00000, 1.250, 0.00000, 1.260, 0.00000, 1.270, 0.00000
1.280, 0.00000, 1.290, 0.00000, 1.300, 0.00000, 1.310, 0.00000
1.320, 0.00000, 1.330, 0.00000, 1.340, 0.00000, 1.350, 0.00000
1.360, 0.00000, 1.370, 0.00000, 1.380, 0.00000, 1.390, 0.00000
1.400, 0.00000, 1.410, 0.00000, 1.420, 0.00000, 1.430, 0.00000
1.440, 0.00000, 1.450, 0.00000, 1.460, 0.00000, 1.470, 0.00000
1.480, 0.00000, 1.490, 0.00000, 1.500, 0.00000, 1.510, 0.00000
1.520, 0.00000, 1.530, 0.00000, 1.540, 0.00000, 1.550, 0.00000
1.560, 0.00000, 1.570, 0.00000, 1.580, 0.00000, 1.590, 0.00000
1.600, 0.00000, 1.610, 0.00000, 1.620, 0.00000, 1.630, 0.00000
1.640, 0.00000, 1.650, 0.00000, 1.660, 0.00000, 1.670, 0.00000
1.680, 0.00000, 1.690, 0.00000, 1.700, 0.00000, 1.710, 0.00000
1.720, 0.00000, 1.730, 0.00000, 1.740, 0.00000, 1.750, 0.00000
1.760, 0.00000, 1.770, 0.00000, 1.780, 0.00000, 1.790, 0.00000
1.800, 0.00000, 1.810, 0.00000, 1.820, 0.00000, 1.830, 0.00000
1.840, 0.00000, 1.850, 0.00000, 1.860, 0.00000, 1.870, 0.00000
1.880, 0.00000, 1.890, 0.00000, 1.900, 0.00000, 1.910, 0.00000
1.920, 0.00000, 1.930, 0.00000, 1.940, 0.00000, 1.950, 0.00000
1.960, 0.00000, 1.970, 0.00000, 1.980, 0.00000, 1.990, 0.00000
2.000, 0.00000, 2.010, 1242.68311, 2.020, 2485.36622, 2.030, 3728.04933
2.040, 4970.73243, 2.050, 6213.41554, 2.060, 5902.74476, 2.070, 5592.07399
2.080, 5281.40321, 2.090, 4970.73243, 2.100, 4660.06166, 2.110, 4349.39088
2.120, 4038.72010, 2.130, 3728.04933, 2.140, 3417.37855, 2.150, 3106.70777
2.160, 2796.03699, 2.170, 2485.36622, 2.180, 2174.69544, 2.190, 1864.02466
2.200, 1553.35389, 2.210, 1242.68311, 2.220, 932.01233, 2.230, 621.34155
2.240, 310.67078, 2.250, 0.00000, 2.260, 0.00000, 2.270, 0.00000
2.280, 0.00000, 2.290, 0.00000, 2.300, 0.00000, 2.310, 0.00000
2.320, 0.00000, 2.330, 0.00000, 2.340, 0.00000, 2.350, 0.00000
2.360, 0.00000, 2.370, 0.00000, 2.380, 0.00000, 2.390, 0.00000
2.400, 0.00000, 2.410, 0.00000, 2.420, 0.00000, 2.430, 0.00000
2.440, 0.00000, 2.450, 0.00000, 2.460, 0.00000, 2.470, 0.00000
2.480, 0.00000, 2.490, 0.00000, 2.500, 0.00000, 2.510, 0.00000
2.520, 0.00000, 2.530, 0.00000, 2.540, 0.00000, 2.550, 0.00000
2.560, 0.00000, 2.570, 0.00000, 2.580, 0.00000, 2.590, 0.00000
2.600, 0.00000, 2.610, 0.00000, 2.620, 0.00000, 2.630, 0.00000
2.640, 0.00000, 2.650, 0.00000, 2.660, 0.00000, 2.670, 0.00000
2.680, 0.00000, 2.690, 0.00000, 2.700, 0.00000, 2.710, 0.00000
2.720, 0.00000, 2.730, 0.00000, 2.740, 0.00000, 2.750, 0.00000
2.760, 0.00000, 2.770, 0.00000, 2.780, 0.00000, 2.790, 0.00000
2.800, 0.00000, 2.810, 0.00000, 2.820, 0.00000, 2.830, 0.00000
2.840, 0.00000, 2.850, 0.00000, 2.860, 0.00000, 2.870, 0.00000
2.880, 0.00000, 2.890, 0.00000, 2.900, 0.00000, 2.910, 0.00000
2.920, 0.00000, 2.930, 0.00000, 2.940, 0.00000, 2.950, 0.00000
2.960, 0.00000, 2.970, 0.00000, 2.980, 0.00000, 2.990, 0.00000
3.000, 0.00000, 3.010, 0.00000, 3.020, 0.00000, 3.030, 0.00000
3.040, 0.00000, 3.050, 0.00000, 3.060, 0.00000, 3.070, 0.00000
3.080, 0.00000, 3.090, 0.00000, 3.100, 0.00000, 3.110, 0.00000
3.120, 0.00000, 3.130, 0.00000, 3.140, 0.00000, 3.150, 0.00000
3.160, 0.00000, 3.170, 0.00000, 3.180, 0.00000, 3.190, 0.00000
3.200, 0.00000, 3.210, 0.00000, 3.220, 0.00000, 3.230, 0.00000
3.240, 0.00000, 3.250, 0.00000, 3.260, 0.00000, 3.270, 0.00000
3.280, 0.00000, 3.290, 0.00000, 3.300, 0.00000, 3.310, 0.00000
3.320, 0.00000, 3.330, 0.00000, 3.340, 0.00000, 3.350, 0.00000
3.360, 0.00000, 3.370, 0.00000, 3.380, 0.00000, 3.390, 0.00000
3.400, 0.00000, 3.410, 0.00000, 3.420, 0.00000, 3.430, 0.00000
3.440, 0.00000, 3.450, 0.00000, 3.460, 0.00000, 3.470, 0.00000
3.480, 0.00000, 3.490, 0.00000, 3.500, 0.00000, 3.510, 0.00000
3.520, 0.00000, 3.530, 0.00000, 3.540, 0.00000, 3.550, 0.00000
3.560, 0.00000, 3.570, 0.00000, 3.580, 0.00000, 3.590, 0.00000
3.600, 0.00000, 3.610, 0.00000, 3.620, 0.00000, 3.630, 0.00000
3.640, 0.00000, 3.650, 0.00000, 3.660, 0.00000, 3.670, 0.00000
3.680, 0.00000, 3.690, 0.00000, 3.700, 0.00000, 3.710, 0.00000
3.720, 0.00000, 3.730, 0.00000, 3.740, 0.00000, 3.750, 0.00000
3.760, 0.00000, 3.770, 0.00000, 3.780, 0.00000, 3.790, 0.00000
3.800, 0.00000, 3.810, 0.00000, 3.820, 0.00000, 3.830, 0.00000
3.840, 0.00000, 3.850, 0.00000, 3.860, 0.00000, 3.870, 0.00000
3.880, 0.00000, 3.890, 0.00000, 3.900, 0.00000, 3.910, 0.00000
3.920, 0.00000, 3.930, 0.00000, 3.940, 0.00000, 3.950, 0.00000
3.960, 0.00000, 3.970, 0.00000, 3.980, 0.00000, 3.990, 0.00000
4.000, 0.00000, 4.010, 1018.32958, 4.020, 2036.65917, 4.030, 3054.98875
4.040, 4073.31834, 4.050, 5091.64792, 4.060, 4837.06553, 4.070, 4582.48313
4.080, 4327.90073, 4.090, 4073.31834, 4.100, 3818.73594, 4.110, 3564.15355
4.120, 3309.57115, 4.130, 3054.98875, 4.140, 2800.40636, 4.150, 2545.82396
4.160, 2291.24157, 4.170, 2036.65917, 4.180, 1782.07677, 4.190, 1527.49438
4.200, 1272.91198, 4.210, 1018.32958, 4.220, 763.74719, 4.230, 509.16479
4.240, 254.58240, 4.250, 0.00000, 4.260, 0.00000, 4.270, 0.00000
4.280, 0.00000, 4.290, 0.00000, 4.300, 0.00000, 4.310, 0.00000
4.320, 0.00000, 4.330, 0.00000, 4.340, 0.00000, 4.350, 0.00000
4.360, 0.00000, 4.370, 0.00000, 4.380, 0.00000, 4.390, 0.00000
4.400, 0.00000, 4.410, 0.00000, 4.420, 0.00000, 4.430, 0.00000
4.440, 0.00000, 4.450, 0.00000, 4.460, 0.00000, 4.470, 0.00000
4.480, 0.00000, 4.490, 0.00000, 4.500, 0.00000, 4.510, 0.00000
4.520, 0.00000, 4.530, 0.00000, 4.540, 0.00000, 4.550, 0.00000
4.560, 0.00000, 4.570, 0.00000, 4.580, 0.00000, 4.590, 0.00000
4.600, 0.00000, 4.610, 0.00000, 4.620, 0.00000, 4.630, 0.00000
4.640, 0.00000, 4.650, 0.00000, 4.660, 0.00000, 4.670, 0.00000
4.680, 0.00000, 4.690, 0.00000, 4.700, 0.00000, 4.710, 0.00000
4.720, 0.00000, 4.730, 0.00000, 4.740, 0.00000, 4.750, 0.00000
4.760, 0.00000, 4.770, 0.00000, 4.780, 0.00000, 4.790, 0.00000
4.800, 0.00000, 4.810, 0.00000, 4.820, 0.00000, 4.830, 0.00000
4.840, 0.00000, 4.850, 0.00000, 4.860, 0.00000, 4.870, 0.00000
4.880, 0.00000, 4.890, 0.00000, 4.900, 0.00000, 4.910, 0.00000
4.920, 0.00000, 4.930, 0.00000, 4.940, 0.00000, 4.950, 0.00000
4.960, 0.00000, 4.970, 0.00000, 4.980, 0.00000, 4.990, 0.00000
5.000, 0.00000, 5.010, 0.00000, 5.020, 0.00000, 5.030, 0.00000
5.040, 0.00000, 5.050, 0.00000, 5.060, 0.00000, 5.070, 0.00000
5.080, 0.00000, 5.090, 0.00000, 5.100, 0.00000, 5.110, 0.00000
5.120, 0.00000, 5.130, 0.00000, 5.140, 0.00000, 5.150, 0.00000
5.160, 0.00000, 5.170, 0.00000, 5.180, 0.00000, 5.190, 0.00000
5.200, 0.00000, 5.210, 0.00000, 5.220, 0.00000, 5.230, 0.00000
5.240, 0.00000, 5.250, 0.00000, 5.260, 0.00000, 5.270, 0.00000
5.280, 0.00000, 5.290, 0.00000, 5.300, 0.00000, 5.310, 0.00000
5.320, 0.00000, 5.330, 0.00000, 5.340, 0.00000, 5.350, 0.00000
5.360, 0.00000, 5.370, 0.00000, 5.380, 0.00000, 5.390, 0.00000
5.400, 0.00000, 5.410, 0.00000, 5.420, 0.00000, 5.430, 0.00000
5.440, 0.00000, 5.450, 0.00000, 5.460, 0.00000, 5.470, 0.00000
5.480, 0.00000, 5.490, 0.00000, 5.500, 0.00000, 5.510, 0.00000
5.520, 0.00000, 5.530, 0.00000, 5.540, 0.00000, 5.550, 0.00000
5.560, 0.00000, 5.570, 0.00000, 5.580, 0.00000, 5.590, 0.00000
5.600, 0.00000, 5.610, 0.00000, 5.620, 0.00000, 5.630, 0.00000
5.640, 0.00000, 5.650, 0.00000, 5.660, 0.00000, 5.670, 0.00000
5.680, 0.00000, 5.690, 0.00000, 5.700, 0.00000, 5.710, 0.00000
5.720, 0.00000, 5.730, 0.00000, 5.740, 0.00000, 5.750, 0.00000
5.760, 0.00000, 5.770, 0.00000, 5.780, 0.00000, 5.790, 0.00000
5.800, 0.00000, 5.810, 0.00000, 5.820, 0.00000, 5.830, 0.00000
5.840, 0.00000, 5.850, 0.00000, 5.860, 0.00000, 5.870, 0.00000
5.880, 0.00000, 5.890, 0.00000, 5.900, 0.00000, 5.910, 0.00000
5.920, 0.00000, 5.930, 0.00000, 5.940, 0.00000, 5.950, 0.00000
5.960, 0.00000, 5.970, 0.00000, 5.980, 0.00000, 5.990, 0.00000
6.000, 0.00000, 6.010, 879.99853, 6.020, 1759.99706, 6.030, 2639.99559
6.040, 3519.99412, 6.050, 4399.99265, 6.060, 4179.99301, 6.070, 3959.99338
6.080, 3739.99375, 6.090, 3519.99412, 6.100, 3299.99448, 6.110, 3079.99485
6.120, 2859.99522, 6.130, 2639.99559, 6.140, 2419.99596, 6.150, 2199.99632
6.160, 1979.99669, 6.170, 1759.99706, 6.180, 1539.99743, 6.190, 1319.99779
6.200, 1099.99816, 6.210, 879.99853, 6.220, 659.99890, 6.230, 439.99926
6.240, 219.99963, 6.250, 0.00000, 6.260, 0.00000, 6.270, 0.00000
6.280, 0.00000, 6.290, 0.00000, 6.300, 0.00000, 6.310, 0.00000
6.320, 0.00000, 6.330, 0.00000, 6.340, 0.00000, 6.350, 0.00000
6.360, 0.00000, 6.370, 0.00000, 6.380, 0.00000, 6.390, 0.00000
6.400, 0.00000, 6.410, 0.00000, 6.420, 0.00000, 6.430, 0.00000
6.440, 0.00000, 6.450, 0.00000, 6.460, 0.00000, 6.470, 0.00000
6.480, 0.00000, 6.490, 0.00000, 6.500, 0.00000, 6.510, 0.00000
6.520, 0.00000, 6.530, 0.00000, 6.540, 0.00000, 6.550, 0.00000
6.560, 0.00000, 6.570, 0.00000, 6.580, 0.00000, 6.590, 0.00000
6.600, 0.00000, 6.610, 0.00000, 6.620, 0.00000, 6.630, 0.00000
6.640, 0.00000, 6.650, 0.00000, 6.660, 0.00000, 6.670, 0.00000
6.680, 0.00000, 6.690, 0.00000, 6.700, 0.00000, 6.710, 0.00000
6.720, 0.00000, 6.730, 0.00000, 6.740, 0.00000, 6.750, 0.00000
6.760, 0.00000, 6.770, 0.00000, 6.780, 0.00000, 6.790, 0.00000
6.800, 0.00000, 6.810, 0.00000, 6.820, 0.00000, 6.830, 0.00000
6.840, 0.00000, 6.850, 0.00000, 6.860, 0.00000, 6.870, 0.00000
6.880, 0.00000, 6.890, 0.00000, 6.900, 0.00000, 6.910, 0.00000
6.920, 0.00000, 6.930, 0.00000, 6.940, 0.00000, 6.950, 0.00000
6.960, 0.00000, 6.970, 0.00000, 6.980, 0.00000, 6.990, 0.00000
7.000, 0.00000, 7.010, 0.00000, 7.020, 0.00000, 7.030, 0.00000
7.040, 0.00000, 7.050, 0.00000, 7.060, 0.00000, 7.070, 0.00000
7.080, 0.00000, 7.090, 0.00000, 7.100, 0.00000, 7.110, 0.00000
7.120, 0.00000, 7.130, 0.00000, 7.140, 0.00000, 7.150, 0.00000
7.160, 0.00000, 7.170, 0.00000, 7.180, 0.00000, 7.190, 0.00000
7.200, 0.00000, 7.210, 0.00000, 7.220, 0.00000, 7.230, 0.00000
7.240, 0.00000, 7.250, 0.00000, 7.260, 0.00000, 7.270, 0.00000
7.280, 0.00000, 7.290, 0.00000, 7.300, 0.00000, 7.310, 0.00000
7.320, 0.00000, 7.330, 0.00000, 7.340, 0.00000, 7.350, 0.00000
7.360, 0.00000, 7.370, 0.00000, 7.380, 0.00000, 7.390, 0.00000
7.400, 0.00000, 7.410, 0.00000, 7.420, 0.00000, 7.430, 0.00000
7.440, 0.00000, 7.450, 0.00000, 7.460, 0.00000, 7.470, 0.00000
7.480, 0.00000, 7.490, 0.00000, 7.500, 0.00000, 7.510, 0.00000
7.520, 0.00000, 7.530, 0.00000, 7.540, 0.00000, 7.550, 0.00000
7.560, 0.00000, 7.570, 0.00000, 7.580, 0.00000, 7.590, 0.00000
7.600, 0.00000, 7.610, 0.00000, 7.620, 0.00000, 7.630, 0.00000
7.640, 0.00000, 7.650, 0.00000, 7.660, 0.00000, 7.670, 0.00000
7.680, 0.00000, 7.690, 0.00000, 7.700, 0.00000, 7.710, 0.00000
7.720, 0.00000, 7.730, 0.00000, 7.740, 0.00000, 7.750, 0.00000
7.760, 0.00000, 7.770, 0.00000, 7.780, 0.00000, 7.790, 0.00000
7.800, 0.00000, 7.810, 0.00000, 7.820, 0.00000, 7.830, 0.00000
7.840, 0.00000, 7.850, 0.00000, 7.860, 0.00000, 7.870, 0.00000
7.880, 0.00000, 7.890, 0.00000, 7.900, 0.00000, 7.910, 0.00000
7.920, 0.00000, 7.930, 0.00000, 7.940, 0.00000, 7.950, 0.00000
7.960, 0.00000, 7.970, 0.00000, 7.980, 0.00000, 7.990, 0.00000
8.000, 0.00000, 8.010, 783.49009, 8.020, 1566.98018, 8.030, 2350.47027
8.040, 3133.96036, 8.050, 3917.45045, 8.060, 3721.57793, 8.070, 3525.70541
8.080, 3329.83289, 8.090, 3133.96036, 8.100, 2938.08784, 8.110, 2742.21532
8.120, 2546.34280, 8.130, 2350.47027, 8.140, 2154.59775, 8.150, 1958.72523
8.160, 1762.85270, 8.170, 1566.98018, 8.180, 1371.10766, 8.190, 1175.23514
8.200, 979.36261, 8.210, 783.49009, 8.220, 587.61757, 8.230, 391.74505
8.240, 195.87252, 8.250, 0.00000, 8.260, 0.00000, 8.270, 0.00000
8.280, 0.00000, 8.290, 0.00000, 8.300, 0.00000, 8.310, 0.00000
8.320, 0.00000, 8.330, 0.00000, 8.340, 0.00000, 8.350, 0.00000
8.360, 0.00000, 8.370, 0.00000, 8.380, 0.00000, 8.390, 0.00000
8.400, 0.00000, 8.410, 0.00000, 8.420, 0.00000, 8.430, 0.00000
8.440, 0.00000, 8.450, 0.00000, 8.460, 0.00000, 8.470, 0.00000
8.480, 0.00000, 8.490, 0.00000, 8.500, 0.00000, 8.510, 0.00000
8.520, 0.00000, 8.530, 0.00000, 8.540, 0.00000, 8.550, 0.00000
8.560, 0.00000, 8.570, 0.00000, 8.580, 0.00000, 8.590, 0.00000
8.600, 0.00000, 8.610, 0.00000, 8.620, 0.00000, 8.630, 0.00000
8.640, 0.00000, 8.650, 0.00000, 8.660, 0.00000, 8.670, 0.00000
8.680, 0.00000, 8.690, 0.00000, 8.700, 0.00000, 8.710, 0.00000
8.720, 0.00000, 8.730, 0.00000, 8.740, 0.00000, 8.750, 0.00000
8.760, 0.00000, 8.770, 0.00000, 8.780, 0.00000, 8.790, 0.00000
8.800, 0.00000, 8.810, 0.00000, 8.820, 0.00000, 8.830, 0.00000
8.840, 0.00000, 8.850, 0.00000, 8.860, 0.00000, 8.870, 0.00000
8.880, 0.00000, 8.890, 0.00000, 8.900, 0.00000, 8.910, 0.00000
8.920, 0.00000, 8.930, 0.00000, 8.940, 0.00000, 8.950, 0.00000
8.960, 0.00000, 8.970, 0.00000, 8.980, 0.00000, 8.990, 0.00000
9.000, 0.00000, 9.010, 0.00000, 9.020, 0.00000, 9.030, 0.00000
9.040, 0.00000, 9.050, 0.00000, 9.060, 0.00000, 9.070, 0.00000
9.080, 0.00000, 9.090, 0.00000, 9.100, 0.00000, 9.110, 0.00000
9.120, 0.00000, 9.130, 0.00000, 9.140, 0.00000, 9.150, 0.00000
9.160, 0.00000, 9.170, 0.00000, 9.180, 0.00000, 9.190, 0.00000
9.200, 0.00000, 9.210, 0.00000, 9.220, 0.00000, 9.230, 0.00000
9.240, 0.00000, 9.250, 0.00000, 9.260, 0.00000, 9.270, 0.00000
9.280, 0.00000, 9.290, 0.00000, 9.300, 0.00000, 9.310, 0.00000
9.320, 0.00000, 9.330, 0.00000, 9.340, 0.00000, 9.350, 0.00000
9.360, 0.00000, 9.370, 0.00000, 9.380, 0.00000, 9.390, 0.00000
9.400, 0.00000, 9.410, 0.00000, 9.420, 0.00000, 9.430, 0.00000
9.440, 0.00000, 9.450, 0.00000, 9.460, 0.00000, 9.470, 0.00000
9.480, 0.00000, 9.490, 0.00000, 9.500, 0.00000, 9.510, 0.00000
9.520, 0.00000, 9.530, 0.00000, 9.540, 0.00000, 9.550, 0.00000
9.560, 0.00000, 9.570, 0.00000, 9.580, 0.00000, 9.590, 0.00000
9.600, 0.00000, 9.610, 0.00000, 9.620, 0.00000, 9.630, 0.00000
9.640, 0.00000, 9.650, 0.00000, 9.660, 0.00000, 9.670, 0.00000
9.680, 0.00000, 9.690, 0.00000, 9.700, 0.00000, 9.710, 0.00000
9.720, 0.00000, 9.730, 0.00000, 9.740, 0.00000, 9.750, 0.00000
9.760, 0.00000, 9.770, 0.00000, 9.780, 0.00000, 9.790, 0.00000
9.800, 0.00000, 9.810, 0.00000, 9.820, 0.00000, 9.830, 0.00000
9.840, 0.00000, 9.850, 0.00000, 9.860, 0.00000, 9.870, 0.00000
9.880, 0.00000, 9.890, 0.00000, 9.900, 0.00000, 9.910, 0.00000
9.920, 0.00000, 9.930, 0.00000, 9.940, 0.00000, 9.950, 0.00000
9.960, 0.00000, 9.970, 0.00000, 9.980, 0.00000, 9.990, 0.00000
*AMPLITUDE, NAME=ROW6
0.000, 0.00000, 0.010, 3779.86344, 0.020, 7559.72688, 0.030, 11339.59032
0.040, 15119.45377, 0.050, 18899.31721, 0.060, 17954.35135, 0.070, 17009.38549
0.080, 16064.41963, 0.090, 15119.45377, 0.100, 14174.48791, 0.110, 13229.52204
0.120, 12284.55618, 0.130, 11339.59032, 0.140, 10394.62446, 0.150, 9449.65860
0.160, 8504.69274, 0.170, 7559.72688, 0.180, 6614.76102, 0.190, 5669.79516
0.200, 4724.82930, 0.210, 3779.86344, 0.220, 2834.89758, 0.230, 1889.93172
0.240, 944.96586, 0.250, 0.00000, 0.260, 0.00000, 0.270, 0.00000
0.280, 0.00000, 0.290, 0.00000, 0.300, 0.00000, 0.310, 0.00000
0.320, 0.00000, 0.330, 0.00000, 0.340, 0.00000, 0.350, 0.00000
0.360, 0.00000, 0.370, 0.00000, 0.380, 0.00000, 0.390, 0.00000
0.400, 0.00000, 0.410, 0.00000, 0.420, 0.00000, 0.430, 0.00000
0.440, 0.00000, 0.450, 0.00000, 0.460, 0.00000, 0.470, 0.00000
0.480, 0.00000, 0.490, 0.00000, 0.500, 0.00000, 0.510, 0.00000
0.520, 0.00000, 0.530, 0.00000, 0.540, 0.00000, 0.550, 0.00000
0.560, 0.00000, 0.570, 0.00000, 0.580, 0.00000, 0.590, 0.00000
0.600, 0.00000, 0.610, 0.00000, 0.620, 0.00000, 0.630, 0.00000
0.640, 0.00000, 0.650, 0.00000, 0.660, 0.00000, 0.670, 0.00000
0.680, 0.00000, 0.690, 0.00000, 0.700, 0.00000, 0.710, 0.00000
0.720, 0.00000, 0.730, 0.00000, 0.740, 0.00000, 0.750, 0.00000
0.760, 0.00000, 0.770, 0.00000, 0.780, 0.00000, 0.790, 0.00000
0.800, 0.00000, 0.810, 0.00000, 0.820, 0.00000, 0.830, 0.00000
0.840, 0.00000, 0.850, 0.00000, 0.860, 0.00000, 0.870, 0.00000
0.880, 0.00000, 0.890, 0.00000, 0.900, 0.00000, 0.910, 0.00000
0.920, 0.00000, 0.930, 0.00000, 0.940, 0.00000, 0.950, 0.00000
0.960, 0.00000, 0.970, 0.00000, 0.980, 0.00000, 0.990, 0.00000
1.000, 0.00000, 1.010, 0.00000, 1.020, 0.00000, 1.030, 0.00000
1.040, 0.00000, 1.050, 0.00000, 1.060, 0.00000, 1.070, 0.00000
1.080, 0.00000, 1.090, 0.00000, 1.100, 0.00000, 1.110, 0.00000
1.120, 0.00000, 1.130, 0.00000, 1.140, 0.00000, 1.150, 0.00000
1.160, 0.00000, 1.170, 0.00000, 1.180, 0.00000, 1.190, 0.00000
1.200, 0.00000, 1.210, 0.00000, 1.220, 0.00000, 1.230, 0.00000
1.240, 0.00000, 1.250, 0.00000, 1.260, 0.00000, 1.270, 0.00000
1.280, 0.00000, 1.290, 0.00000, 1.300, 0.00000, 1.310, 0.00000
1.320, 0.00000, 1.330, 0.00000, 1.340, 0.00000, 1.350, 0.00000
1.360, 0.00000, 1.370, 0.00000, 1.380, 0.00000, 1.390, 0.00000
1.400, 0.00000, 1.410, 0.00000, 1.420, 0.00000, 1.430, 0.00000
1.440, 0.00000, 1.450, 0.00000, 1.460, 0.00000, 1.470, 0.00000
1.480, 0.00000, 1.490, 0.00000, 1.500, 0.00000, 1.510, 0.00000
1.520, 0.00000, 1.530, 0.00000, 1.540, 0.00000, 1.550, 0.00000
1.560, 0.00000, 1.570, 0.00000, 1.580, 0.00000, 1.590, 0.00000
1.600, 0.00000, 1.610, 0.00000, 1.620, 0.00000, 1.630, 0.00000
1.640, 0.00000, 1.650, 0.00000, 1.660, 0.00000, 1.670, 0.00000
1.680, 0.00000, 1.690, 0.00000, 1.700, 0.00000, 1.710, 0.00000
1.720, 0.00000, 1.730, 0.00000, 1.740, 0.00000, 1.750, 0.00000
1.760, 0.00000, 1.770, 0.00000, 1.780, 0.00000, 1.790, 0.00000
1.800, 0.00000, 1.810, 0.00000, 1.820, 0.00000, 1.830, 0.00000
1.840, 0.00000, 1.850, 0.00000, 1.860, 0.00000, 1.870, 0.00000
1.880, 0.00000, 1.890, 0.00000, 1.900, 0.00000, 1.910, 0.00000
1.920, 0.00000, 1.930, 0.00000, 1.940, 0.00000, 1.950, 0.00000
1.960, 0.00000, 1.970, 0.00000, 1.980, 0.00000, 1.990, 0.00000
2.000, 0.00000, 2.010, 2796.45056, 2.020, 5592.90113, 2.030, 8389.35169
2.040, 11185.80225, 2.050, 13982.25281, 2.060, 13283.14017, 2.070, 12584.02753
2.080, 11884.91489, 2.090, 11185.80225, 2.100, 10486.68961, 2.110, 9787.57697
2.120, 9088.46433, 2.130, 8389.35169, 2.140, 7690.23905, 2.150, 6991.12641
2.160, 6292.01377, 2.170, 5592.90113, 2.180, 4893.78848, 2.190, 4194.67584
2.200, 3495.56320, 2.210, 2796.45056, 2.220, 2097.33792, 2.230, 1398.22528
2.240, 699.11264, 2.250, 0.00000, 2.260, 0.00000, 2.270, 0.00000
2.280, 0.00000, 2.290, 0.00000, 2.300, 0.00000, 2.310, 0.00000
2.320, 0.00000, 2.330, 0.00000, 2.340, 0.00000, 2.350, 0.00000
2.360, 0.00000, 2.370, 0.00000, 2.380, 0.00000, 2.390, 0.00000
2.400, 0.00000, 2.410, 0.00000, 2.420, 0.00000, 2.430, 0.00000
2.440, 0.00000, 2.450, 0.00000, 2.460, 0.00000, 2.470, 0.00000
2.480, 0.00000, 2.490, 0.00000, 2.500, 0.00000, 2.510, 0.00000
2.520, 0.00000, 2.530, 0.00000, 2.540, 0.00000, 2.550, 0.00000
2.560, 0.00000, 2.570, 0.00000, 2.580, 0.00000, 2.590, 0.00000
2.600, 0.00000, 2.610, 0.00000, 2.620, 0.00000, 2.630, 0.00000
2.640, 0.00000, 2.650, 0.00000, 2.660, 0.00000, 2.670, 0.00000
2.680, 0.00000, 2.690, 0.00000, 2.700, 0.00000, 2.710, 0.00000
2.720, 0.00000, 2.730, 0.00000, 2.740, 0.00000, 2.750, 0.00000
2.760, 0.00000, 2.770, 0.00000, 2.780, 0.00000, 2.790, 0.00000
2.800, 0.00000, 2.810, 0.00000, 2.820, 0.00000, 2.830, 0.00000
2.840, 0.00000, 2.850, 0.00000, 2.860, 0.00000, 2.870, 0.00000
2.880, 0.00000, 2.890, 0.00000, 2.900, 0.00000, 2.910, 0.00000
2.920, 0.00000, 2.930, 0.00000, 2.940, 0.00000, 2.950, 0.00000
2.960, 0.00000, 2.970, 0.00000, 2.980, 0.00000, 2.990, 0.00000
3.000, 0.00000, 3.010, 0.00000, 3.020, 0.00000, 3.030, 0.00000
3.040, 0.00000, 3.050, 0.00000, 3.060, 0.00000, 3.070, 0.00000
3.080, 0.00000, 3.090, 0.00000, 3.100, 0.00000, 3.110, 0.00000
3.120, 0.00000, 3.130, 0.00000, 3.140, 0.00000, 3.150, 0.00000
3.160, 0.00000, 3.170, 0.00000, 3.180, 0.00000, 3.190, 0.00000
3.200, 0.00000, 3.210, 0.00000, 3.220, 0.00000, 3.230, 0.00000
3.240, 0.00000, 3.250, 0.00000, 3.260, 0.00000, 3.270, 0.00000
3.280, 0.00000, 3.290, 0.00000, 3.300, 0.00000, 3.310, 0.00000
3.320, 0.00000, 3.330, 0.00000, 3.340, 0.00000, 3.350, 0.00000
3.360, 0.00000, 3.370, 0.00000, 3.380, 0.00000, 3.390, 0.00000
3.400, 0.00000, 3.410, 0.00000, 3.420, 0.00000, 3.430, 0.00000
3.440, 0.00000, 3.450, 0.00000, 3.460, 0.00000, 3.470, 0.00000
3.480, 0.00000, 3.490, 0.00000, 3.500, 0.00000, 3.510, 0.00000
3.520, 0.00000, 3.530, 0.00000, 3.540, 0.00000, 3.550, 0.00000
3.560, 0.00000, 3.570, 0.00000, 3.580, 0.00000, 3.590, 0.00000
3.600, 0.00000, 3.610, 0.00000, 3.620, 0.00000, 3.630, 0.00000
3.640, 0.00000, 3.650, 0.00000, 3.660, 0.00000, 3.670, 0.00000
3.680, 0.00000, 3.690, 0.00000, 3.700, 0.00000, 3.710, 0.00000
3.720, 0.00000, 3.730, 0.00000, 3.740, 0.00000, 3.750, 0.00000
3.760, 0.00000, 3.770, 0.00000, 3.780, 0.00000, 3.790, 0.00000
3.800, 0.00000, 3.810, 0.00000, 3.820, 0.00000, 3.830, 0.00000
3.840, 0.00000, 3.850, 0.00000, 3.860, 0.00000, 3.870, 0.00000
3.880, 0.00000, 3.890, 0.00000, 3.900, 0.00000, 3.910, 0.00000
3.920, 0.00000, 3.930, 0.00000, 3.940, 0.00000, 3.950, 0.00000
3.960, 0.00000, 3.970, 0.00000, 3.980, 0.00000, 3.990, 0.00000
4.000, 0.00000, 4.010, 2291.58047, 4.020, 4583.16094, 4.030, 6874.74141
4.040, 9166.32187, 4.050, 11457.90234, 4.060, 10885.00723, 4.070, 10312.11211
4.080, 9739.21699, 4.090, 9166.32187, 4.100, 8593.42676, 4.110, 8020.53164
4.120, 7447.63652, 4.130, 6874.74141, 4.140, 6301.84629, 4.150, 5728.95117
4.160, 5156.05605, 4.170, 4583.16094, 4.180, 4010.26582, 4.190, 3437.37070
4.200, 2864.47559, 4.210, 2291.58047, 4.220, 1718.68535, 4.230, 1145.79023
4.240, 572.89512, 4.250, 0.00000, 4.260, 0.00000, 4.270, 0.00000
4.280, 0.00000, 4.290, 0.00000, 4.300, 0.00000, 4.310, 0.00000
4.320, 0.00000, 4.330, 0.00000, 4.340, 0.00000, 4.350, 0.00000
4.360, 0.00000, 4.370, 0.00000, 4.380, 0.00000, 4.390, 0.00000
4.400, 0.00000, 4.410, 0.00000, 4.420, 0.00000, 4.430, 0.00000
4.440, 0.00000, 4.450, 0.00000, 4.460, 0.00000, 4.470, 0.00000
4.480, 0.00000, 4.490, 0.00000, 4.500, 0.00000, 4.510, 0.00000
4.520, 0.00000, 4.530, 0.00000, 4.540, 0.00000, 4.550, 0.00000
4.560, 0.00000, 4.570, 0.00000, 4.580, 0.00000, 4.590, 0.00000
4.600, 0.00000, 4.610, 0.00000, 4.620, 0.00000, 4.630, 0.00000
4.640, 0.00000, 4.650, 0.00000, 4.660, 0.00000, 4.670, 0.00000
4.680, 0.00000, 4.690, 0.00000, 4.700, 0.00000, 4.710, 0.00000
4.720, 0.00000, 4.730, 0.00000, 4.740, 0.00000, 4.750, 0.00000
4.760, 0.00000, 4.770, 0.00000, 4.780, 0.00000, 4.790, 0.00000
4.800, 0.00000, 4.810, 0.00000, 4.820, 0.00000, 4.830, 0.00000
4.840, 0.00000, 4.850, 0.00000, 4.860, 0.00000, 4.870, 0.00000
4.880, 0.00000, 4.890, 0.00000, 4.900, 0.00000, 4.910, 0.00000
4.920, 0.00000, 4.930, 0.00000, 4.940, 0.00000, 4.950, 0.00000
4.960, 0.00000, 4.970, 0.00000, 4.980, 0.00000, 4.990, 0.00000
5.000, 0.00000, 5.010, 0.00000, 5.020, 0.00000, 5.030, 0.00000
5.040, 0.00000, 5.050, 0.00000, 5.060, 0.00000, 5.070, 0.00000
5.080, 0.00000, 5.090, 0.00000, 5.100, 0.00000, 5.110, 0.00000
5.120, 0.00000, 5.130, 0.00000, 5.140, 0.00000, 5.150, 0.00000
5.160, 0.00000, 5.170, 0.00000, 5.180, 0.00000, 5.190, 0.00000
5.200, 0.00000, 5.210, 0.00000, 5.220, 0.00000, 5.230, 0.00000
5.240, 0.00000, 5.250, 0.00000, 5.260, 0.00000, 5.270, 0.00000
5.280, 0.00000, 5.290, 0.00000, 5.300, 0.00000, 5.310, 0.00000
5.320, 0.00000, 5.330, 0.00000, 5.340, 0.00000, 5.350, 0.00000
5.360, 0.00000, 5.370, 0.00000, 5.380, 0.00000, 5.390, 0.00000
5.400, 0.00000, 5.410, 0.00000, 5.420, 0.00000, 5.430, 0.00000
5.440, 0.00000, 5.450, 0.00000, 5.460, 0.00000, 5.470, 0.00000
5.480, 0.00000, 5.490, 0.00000, 5.500, 0.00000, 5.510, 0.00000
5.520, 0.00000, 5.530, 0.00000, 5.540, 0.00000, 5.550, 0.00000
5.560, 0.00000, 5.570, 0.00000, 5.580, 0.00000, 5.590, 0.00000
5.600, 0.00000, 5.610, 0.00000, 5.620, 0.00000, 5.630, 0.00000
5.640, 0.00000, 5.650, 0.00000, 5.660, 0.00000, 5.670, 0.00000
5.680, 0.00000, 5.690, 0.00000, 5.700, 0.00000, 5.710, 0.00000
5.720, 0.00000, 5.730, 0.00000, 5.740, 0.00000, 5.750, 0.00000
5.760, 0.00000, 5.770, 0.00000, 5.780, 0.00000, 5.790, 0.00000
5.800, 0.00000, 5.810, 0.00000, 5.820, 0.00000, 5.830, 0.00000
5.840, 0.00000, 5.850, 0.00000, 5.860, 0.00000, 5.870, 0.00000
5.880, 0.00000, 5.890, 0.00000, 5.900, 0.00000, 5.910, 0.00000
5.920, 0.00000, 5.930, 0.00000, 5.940, 0.00000, 5.950, 0.00000
5.960, 0.00000, 5.970, 0.00000, 5.980, 0.00000, 5.990, 0.00000
6.000, 0.00000, 6.010, 1980.28956, 6.020, 3960.57911, 6.030, 5940.86867
6.040, 7921.15823, 6.050, 9901.44779, 6.060, 9406.37540, 6.070, 8911.30301
6.080, 8416.23062, 6.090, 7921.15823, 6.100, 7426.08584, 6.110, 6931.01345
6.120, 6435.94106, 6.130, 5940.86867, 6.140, 5445.79628, 6.150, 4950.72389
6.160, 4455.65150, 6.170, 3960.57911, 6.180, 3465.50673, 6.190, 2970.43434
6.200, 2475.36195, 6.210, 1980.28956, 6.220, 1485.21717, 6.230, 990.14478
6.240, 495.07239, 6.250, 0.00000, 6.260, 0.00000, 6.270, 0.00000
6.280, 0.00000, 6.290, 0.00000, 6.300, 0.00000, 6.310, 0.00000
6.320, 0.00000, 6.330, 0.00000, 6.340, 0.00000, 6.350, 0.00000
6.360, 0.00000, 6.370, 0.00000, 6.380, 0.00000, 6.390, 0.00000
6.400, 0.00000, 6.410, 0.00000, 6.420, 0.00000, 6.430, 0.00000
6.440, 0.00000, 6.450, 0.00000, 6.460, 0.00000, 6.470, 0.00000
6.480, 0.00000, 6.490, 0.00000, 6.500, 0.00000, 6.510, 0.00000
6.520, 0.00000, 6.530, 0.00000, 6.540, 0.00000, 6.550, 0.00000
6.560, 0.00000, 6.570, 0.00000, 6.580, 0.00000, 6.590, 0.00000
6.600, 0.00000, 6.610, 0.00000, 6.620, 0.00000, 6.630, 0.00000
6.640, 0.00000, 6.650, 0.00000, 6.660, 0.00000, 6.670, 0.00000
6.680, 0.00000, 6.690, 0.00000, 6.700, 0.00000, 6.710, 0.00000
6.720, 0.00000, 6.730, 0.00000, 6.740, 0.00000, 6.750, 0.00000
6.760, 0.00000, 6.770, 0.00000, 6.780, 0.00000, 6.790, 0.00000
6.800, 0.00000, 6.810, 0.00000, 6.820, 0.00000, 6.830, 0.00000
6.840, 0.00000, 6.850, 0.00000, 6.860, 0.00000, 6.870, 0.00000
6.880, 0.00000, 6.890, 0.00000, 6.900, 0.00000, 6.910, 0.00000
6.920, 0.00000, 6.930, 0.00000, 6.940, 0.00000, 6.950, 0.00000
6.960, 0.00000, 6.970, 0.00000, 6.980, 0.00000, 6.990, 0.00000
7.000, 0.00000, 7.010, 0.00000, 7.020, 0.00000, 7.030, 0.00000
7.040, 0.00000, 7.050, 0.00000, 7.060, 0.00000, 7.070, 0.00000
7.080, 0.00000, 7.090, 0.00000, 7.100, 0.00000, 7.110, 0.00000
7.120, 0.00000, 7.130, 0.00000, 7.140, 0.00000, 7.150, 0.00000
7.160, 0.00000, 7.170, 0.00000, 7.180, 0.00000, 7.190, 0.00000
7.200, 0.00000, 7.210, 0.00000, 7.220, 0.00000, 7.230, 0.00000
7.240, 0.00000, 7.250, 0.00000, 7.260, 0.00000, 7.270, 0.00000
7.280, 0.00000, 7.290, 0.00000, 7.300, 0.00000, 7.310, 0.00000
7.320, 0.00000, 7.330, 0.00000, 7.340, 0.00000, 7.350, 0.00000
7.360, 0.00000, 7.370, 0.00000, 7.380, 0.00000, 7.390, 0.00000
7.400, 0.00000, 7.410, 0.00000, 7.420, 0.00000, 7.430, 0.00000
7.440, 0.00000, 7.450, 0.00000, 7.460, 0.00000, 7.470, 0.00000
7.480, 0.00000, 7.490, 0.00000, 7.500, 0.00000, 7.510, 0.00000
7.520, 0.00000, 7.530, 0.00000, 7.540, 0.00000, 7.550, 0.00000
7.560, 0.00000, 7.570, 0.00000, 7.580, 0.00000, 7.590, 0.00000
7.600, 0.00000, 7.610, 0.00000, 7.620, 0.00000, 7.630, 0.00000
7.640, 0.00000, 7.650, 0.00000, 7.660, 0.00000, 7.670, 0.00000
7.680, 0.00000, 7.690, 0.00000, 7.700, 0.00000, 7.710, 0.00000
7.720, 0.00000, 7.730, 0.00000, 7.740, 0.00000, 7.750, 0.00000
7.760, 0.00000, 7.770, 0.00000, 7.780, 0.00000, 7.790, 0.00000
7.800, 0.00000, 7.810, 0.00000, 7.820, 0.00000, 7.830, 0.00000
7.840, 0.00000, 7.850, 0.00000, 7.860, 0.00000, 7.870, 0.00000
7.880, 0.00000, 7.890, 0.00000, 7.900, 0.00000, 7.910, 0.00000
7.920, 0.00000, 7.930, 0.00000, 7.940, 0.00000, 7.950, 0.00000
7.960, 0.00000, 7.970, 0.00000, 7.980, 0.00000, 7.990, 0.00000
8.000, 0.00000, 8.010, 1763.11345, 8.020, 3526.22690, 8.030, 5289.34036
8.040, 7052.45381, 8.050, 8815.56726, 8.060, 8374.78890, 8.070, 7934.01053
8.080, 7493.23217, 8.090, 7052.45381, 8.100, 6611.67545, 8.110, 6170.89708
8.120, 5730.11872, 8.130, 5289.34036, 8.140, 4848.56199, 8.150, 4407.78363
8.160, 3967.00527, 8.170, 3526.22690, 8.180, 3085.44854, 8.190, 2644.67018
8.200, 2203.89182, 8.210, 1763.11345, 8.220, 1322.33509, 8.230, 881.55673
8.240, 440.77836, 8.250, 0.00000, 8.260, 0.00000, 8.270, 0.00000
8.280, 0.00000, 8.290, 0.00000, 8.300, 0.00000, 8.310, 0.00000
8.320, 0.00000, 8.330, 0.00000, 8.340, 0.00000, 8.350, 0.00000
8.360, 0.00000, 8.370, 0.00000, 8.380, 0.00000, 8.390, 0.00000
8.400, 0.00000, 8.410, 0.00000, 8.420, 0.00000, 8.430, 0.00000
8.440, 0.00000, 8.450, 0.00000, 8.460, 0.00000, 8.470, 0.00000
8.480, 0.00000, 8.490, 0.00000, 8.500, 0.00000, 8.510, 0.00000
8.520, 0.00000, 8.530, 0.00000, 8.540, 0.00000, 8.550, 0.00000
8.560, 0.00000, 8.570, 0.00000, 8.580, 0.00000, 8.590, 0.00000
8.600, 0.00000, 8.610, 0.00000, 8.620, 0.00000, 8.630, 0.00000
8.640, 0.00000, 8.650, 0.00000, 8.660, 0.00000, 8.670, 0.00000
8.680, 0.00000, 8.690, 0.00000, 8.700, 0.00000, 8.710, 0.00000
8.720, 0.00000, 8.730, 0.00000, 8.740, 0.00000, 8.750, 0.00000
8.760, 0.00000, 8.770, 0.00000, 8.780, 0.00000, 8.790, 0.00000
8.800, 0.00000, 8.810, 0.00000, 8.820, 0.00000, 8.830, 0.00000
8.840, 0.00000, 8.850, 0.00000, 8.860, 0.00000, 8.870, 0.00000
8.880, 0.00000, 8.890, 0.00000, 8.900, 0.00000, 8.910, 0.00000
8.920, 0.00000, 8.930, 0.00000, 8.940, 0.00000, 8.950, 0.00000
8.960, 0.00000, 8.970, 0.00000, 8.980, 0.00000, 8.990, 0.00000
9.000, 0.00000, 9.010, 0.00000, 9.020, 0.00000, 9.030, 0.00000
9.040, 0.00000, 9.050, 0.00000, 9.060, 0.00000, 9.070, 0.00000
9.080, 0.00000, 9.090, 0.00000, 9.100, 0.00000, 9.110, 0.00000
9.120, 0.00000, 9.130, 0.00000, 9.140, 0.00000, 9.150, 0.00000
9.160, 0.00000, 9.170, 0.00000, 9.180, 0.00000, 9.190, 0.00000
9.200, 0.00000, 9.210, 0.00000, 9.220, 0.00000, 9.230, 0.00000
9.240, 0.00000, 9.250, 0.00000, 9.260, 0.00000, 9.270, 0.00000
9.280, 0.00000, 9.290, 0.00000, 9.300, 0.00000, 9.310, 0.00000
9.320, 0.00000, 9.330, 0.00000, 9.340, 0.00000, 9.350, 0.00000
9.360, 0.00000, 9.370, 0.00000, 9.380, 0.00000, 9.390, 0.00000
9.400, 0.00000, 9.410, 0.00000, 9.420, 0.00000, 9.430, 0.00000
9.440, 0.00000, 9.450, 0.00000, 9.460, 0.00000, 9.470, 0.00000
9.480, 0.00000, 9.490, 0.00000, 9.500, 0.00000, 9.510, 0.00000
9.520, 0.00000, 9.530, 0.00000, 9.540, 0.00000, 9.550, 0.00000
9.560, 0.00000, 9.570, 0.00000, 9.580, 0.00000, 9.590, 0.00000
9.600, 0.00000, 9.610, 0.00000, 9.620, 0.00000, 9.630, 0.00000
9.640, 0.00000, 9.650, 0.00000, 9.660, 0.00000, 9.670, 0.00000
9.680, 0.00000, 9.690, 0.00000, 9.700, 0.00000, 9.710, 0.00000
9.720, 0.00000, 9.730, 0.00000, 9.740, 0.00000, 9.750, 0.00000
9.760, 0.00000, 9.770, 0.00000, 9.780, 0.00000, 9.790, 0.00000
9.800, 0.00000, 9.810, 0.00000, 9.820, 0.00000, 9.830, 0.00000
9.840, 0.00000, 9.850, 0.00000, 9.860, 0.00000, 9.870, 0.00000
9.880, 0.00000, 9.890, 0.00000, 9.900, 0.00000, 9.910, 0.00000
9.920, 0.00000, 9.930, 0.00000, 9.940, 0.00000, 9.950, 0.00000
9.960, 0.00000, 9.970, 0.00000, 9.980, 0.00000, 9.990, 0.00000
*AMPLITUDE, NAME=ROW7
0.000, 0.00000, 0.010, 2290.40872, 0.020, 4580.81744, 0.030, 6871.22616
0.040, 9161.63488, 0.050, 11452.04360, 0.060, 10879.44142, 0.070, 10306.83924
0.080, 9734.23706, 0.090, 9161.63488, 0.100, 8589.03270, 0.110, 8016.43052
0.120, 7443.82834, 0.130, 6871.22616, 0.140, 6298.62398, 0.150, 5726.02180
0.160, 5153.41962, 0.170, 4580.81744, 0.180, 4008.21526, 0.190, 3435.61308
0.200, 2863.01090, 0.210, 2290.40872, 0.220, 1717.80654, 0.230, 1145.20436
0.240, 572.60218, 0.250, 0.00000, 0.260, 0.00000, 0.270, 0.00000
0.280, 0.00000, 0.290, 0.00000, 0.300, 0.00000, 0.310, 0.00000
0.320, 0.00000, 0.330, 0.00000, 0.340, 0.00000, 0.350, 0.00000
0.360, 0.00000, 0.370, 0.00000, 0.380, 0.00000, 0.390, 0.00000
0.400, 0.00000, 0.410, 0.00000, 0.420, 0.00000, 0.430, 0.00000
0.440, 0.00000, 0.450, 0.00000, 0.460, 0.00000, 0.470, 0.00000
0.480, 0.00000, 0.490, 0.00000, 0.500, 0.00000, 0.510, 0.00000
0.520, 0.00000, 0.530, 0.00000, 0.540, 0.00000, 0.550, 0.00000
0.560, 0.00000, 0.570, 0.00000, 0.580, 0.00000, 0.590, 0.00000
0.600, 0.00000, 0.610, 0.00000, 0.620, 0.00000, 0.630, 0.00000
0.640, 0.00000, 0.650, 0.00000, 0.660, 0.00000, 0.670, 0.00000
0.680, 0.00000, 0.690, 0.00000, 0.700, 0.00000, 0.710, 0.00000
0.720, 0.00000, 0.730, 0.00000, 0.740, 0.00000, 0.750, 0.00000
0.760, 0.00000, 0.770, 0.00000, 0.780, 0.00000, 0.790, 0.00000
0.800, 0.00000, 0.810, 0.00000, 0.820, 0.00000, 0.830, 0.00000
0.840, 0.00000, 0.850, 0.00000, 0.860, 0.00000, 0.870, 0.00000
0.880, 0.00000, 0.890, 0.00000, 0.900, 0.00000, 0.910, 0.00000
0.920, 0.00000, 0.930, 0.00000, 0.940, 0.00000, 0.950, 0.00000
0.960, 0.00000, 0.970, 0.00000, 0.980, 0.00000, 0.990, 0.00000
1.000, 0.00000, 1.010, 0.00000, 1.020, 0.00000, 1.030, 0.00000
1.040, 0.00000, 1.050, 0.00000, 1.060, 0.00000, 1.070, 0.00000
1.080, 0.00000, 1.090, 0.00000, 1.100, 0.00000, 1.110, 0.00000
1.120, 0.00000, 1.130, 0.00000, 1.140, 0.00000, 1.150, 0.00000
1.160, 0.00000, 1.170, 0.00000, 1.180, 0.00000, 1.190, 0.00000
1.200, 0.00000, 1.210, 0.00000, 1.220, 0.00000, 1.230, 0.00000
1.240, 0.00000, 1.250, 0.00000, 1.260, 0.00000, 1.270, 0.00000
1.280, 0.00000, 1.290, 0.00000, 1.300, 0.00000, 1.310, 0.00000
1.320, 0.00000, 1.330, 0.00000, 1.340, 0.00000, 1.350, 0.00000
1.360, 0.00000, 1.370, 0.00000, 1.380, 0.00000, 1.390, 0.00000
1.400, 0.00000, 1.410, 0.00000, 1.420, 0.00000, 1.430, 0.00000
1.440, 0.00000, 1.450, 0.00000, 1.460, 0.00000, 1.470, 0.00000
1.480, 0.00000, 1.490, 0.00000, 1.500, 0.00000, 1.510, 0.00000
1.520, 0.00000, 1.530, 0.00000, 1.540, 0.00000, 1.550, 0.00000
1.560, 0.00000, 1.570, 0.00000, 1.580, 0.00000, 1.590, 0.00000
1.600, 0.00000, 1.610, 0.00000, 1.620, 0.00000, 1.630, 0.00000
1.640, 0.00000, 1.650, 0.00000, 1.660, 0.00000, 1.670, 0.00000
1.680, 0.00000, 1.690, 0.00000, 1.700, 0.00000, 1.710, 0.00000
1.720, 0.00000, 1.730, 0.00000, 1.740, 0.00000, 1.750, 0.00000
1.760, 0.00000, 1.770, 0.00000, 1.780, 0.00000, 1.790, 0.00000
1.800, 0.00000, 1.810, 0.00000, 1.820, 0.00000, 1.830, 0.00000
1.840, 0.00000, 1.850, 0.00000, 1.860, 0.00000, 1.870, 0.00000
1.880, 0.00000, 1.890, 0.00000, 1.900, 0.00000, 1.910, 0.00000
1.920, 0.00000, 1.930, 0.00000, 1.940, 0.00000, 1.950, 0.00000
1.960, 0.00000, 1.970, 0.00000, 1.980, 0.00000, 1.990, 0.00000
2.000, 0.00000, 2.010, 3592.15167, 2.020, 7184.30334, 2.030, 10776.45500
2.040, 14368.60667, 2.050, 17960.75834, 2.060, 17062.72042, 2.070, 16164.68251
2.080, 15266.64459, 2.090, 14368.60667, 2.100, 13470.56876, 2.110, 12572.53084
2.120, 11674.49292, 2.130, 10776.45500, 2.140, 9878.41709, 2.150, 8980.37917
2.160, 8082.34125, 2.170, 7184.30334, 2.180, 6286.26542, 2.190, 5388.22750
2.200, 4490.18959, 2.210, 3592.15167, 2.220, 2694.11375, 2.230, 1796.07583
2.240, 898.03792, 2.250, 0.00000, 2.260, 0.00000, 2.270, 0.00000
2.280, 0.00000, 2.290, 0.00000, 2.300, 0.00000, 2.310, 0.00000
2.320, 0.00000, 2.330, 0.00000, 2.340, 0.00000, 2.350, 0.00000
2.360, 0.00000, 2.370, 0.00000, 2.380, 0.00000, 2.390, 0.00000
2.400, 0.00000, 2.410, 0.00000, 2.420, 0.00000, 2.430, 0.00000
2.440, 0.00000, 2.450, 0.00000, 2.460, 0.00000, 2.470, 0.00000
2.480, 0.00000, 2.490, 0.00000, 2.500, 0.00000, 2.510, 0.00000
2.520, 0.00000, 2.530, 0.00000, 2.540, 0.00000, 2.550, 0.00000
2.560, 0.00000, 2.570, 0.00000, 2.580, 0.00000, 2.590, 0.00000
2.600, 0.00000, 2.610, 0.00000, 2.620, 0.00000, 2.630, 0.00000
2.640, 0.00000, 2.650, 0.00000, 2.660, 0.00000, 2.670, 0.00000
2.680, 0.00000, 2.690, 0.00000, 2.700, 0.00000, 2.710, 0.00000
2.720, 0.00000, 2.730, 0.00000, 2.740, 0.00000, 2.750, 0.00000
2.760, 0.00000, 2.770, 0.00000, 2.780, 0.00000, 2.790, 0.00000
2.800, 0.00000, 2.810, 0.00000, 2.820, 0.00000, 2.830, 0.00000
2.840, 0.00000, 2.850, 0.00000, 2.860, 0.00000, 2.870, 0.00000
2.880, 0.00000, 2.890, 0.00000, 2.900, 0.00000, 2.910, 0.00000
2.920, 0.00000, 2.930, 0.00000, 2.940, 0.00000, 2.950, 0.00000
2.960, 0.00000, 2.970, 0.00000, 2.980, 0.00000, 2.990, 0.00000
3.000, 0.00000, 3.010, 0.00000, 3.020, 0.00000, 3.030, 0.00000
3.040, 0.00000, 3.050, 0.00000, 3.060, 0.00000, 3.070, 0.00000
3.080, 0.00000, 3.090, 0.00000, 3.100, 0.00000, 3.110, 0.00000
3.120, 0.00000, 3.130, 0.00000, 3.140, 0.00000, 3.150, 0.00000
3.160, 0.00000, 3.170, 0.00000, 3.180, 0.00000, 3.190, 0.00000
3.200, 0.00000, 3.210, 0.00000, 3.220, 0.00000, 3.230, 0.00000
3.240, 0.00000, 3.250, 0.00000, 3.260, 0.00000, 3.270, 0.00000
3.280, 0.00000, 3.290, 0.00000, 3.300, 0.00000, 3.310, 0.00000
3.320, 0.00000, 3.330, 0.00000, 3.340, 0.00000, 3.350, 0.00000
3.360, 0.00000, 3.370, 0.00000, 3.380, 0.00000, 3.390, 0.00000
3.400, 0.00000, 3.410, 0.00000, 3.420, 0.00000, 3.430, 0.00000
3.440, 0.00000, 3.450, 0.00000, 3.460, 0.00000, 3.470, 0.00000
3.480, 0.00000, 3.490, 0.00000, 3.500, 0.00000, 3.510, 0.00000
3.520, 0.00000, 3.530, 0.00000, 3.540, 0.00000, 3.550, 0.00000
3.560, 0.00000, 3.570, 0.00000, 3.580, 0.00000, 3.590, 0.00000
3.600, 0.00000, 3.610, 0.00000, 3.620, 0.00000, 3.630, 0.00000
3.640, 0.00000, 3.650, 0.00000, 3.660, 0.00000, 3.670, 0.00000
3.680, 0.00000, 3.690, 0.00000, 3.700, 0.00000, 3.710, 0.00000
3.720, 0.00000, 3.730, 0.00000, 3.740, 0.00000, 3.750, 0.00000
3.760, 0.00000, 3.770, 0.00000, 3.780, 0.00000, 3.790, 0.00000
3.800, 0.00000, 3.810, 0.00000, 3.820, 0.00000, 3.830, 0.00000
3.840, 0.00000, 3.850, 0.00000, 3.860, 0.00000, 3.870, 0.00000
3.880, 0.00000, 3.890, 0.00000, 3.900, 0.00000, 3.910, 0.00000
3.920, 0.00000, 3.930, 0.00000, 3.940, 0.00000, 3.950, 0.00000
3.960, 0.00000, 3.970, 0.00000, 3.980, 0.00000, 3.990, 0.00000
4.000, 0.00000, 4.010, 3930.51037, 4.020, 7861.02075, 4.030, 11791.53112
4.040, 15722.04150, 4.050, 19652.55187, 4.060, 18669.92428, 4.070, 17687.29669
4.080, 16704.66909, 4.090, 15722.04150, 4.100, 14739.41391, 4.110, 13756.78631
4.120, 12774.15872, 4.130, 11791.53112, 4.140, 10808.90353, 4.150, 9826.27594
4.160, 8843.64834, 4.170, 7861.02075, 4.180, 6878.39316, 4.190, 5895.76556
4.200, 4913.13797, 4.210, 3930.51037, 4.220, 2947.88278, 4.230, 1965.25519
4.240, 982.62759, 4.250, 0.00000, 4.260, 0.00000, 4.270, 0.00000
4.280, 0.00000, 4.290, 0.00000, 4.300, 0.00000, 4.310, 0.00000
4.320, 0.00000, 4.330, 0.00000, 4.340, 0.00000, 4.350, 0.00000
4.360, 0.00000, 4.370, 0.00000, 4.380, 0.00000, 4.390, 0.00000
4.400, 0.00000, 4.410, 0.00000, 4.420, 0.00000, 4.430, 0.00000
4.440, 0.00000, 4.450, 0.00000, 4.460, 0.00000, 4.470, 0.00000
4.480, 0.00000, 4.490, 0.00000, 4.500, 0.00000, 4.510, 0.00000
4.520, 0.00000, 4.530, 0.00000, 4.540, 0.00000, 4.550, 0.00000
4.560, 0.00000, 4.570, 0.00000, 4.580, 0.00000, 4.590, 0.00000
4.600, 0.00000, 4.610, 0.00000, 4.620, 0.00000, 4.630, 0.00000
4.640, 0.00000, 4.650, 0.00000, 4.660, 0.00000, 4.670, 0.00000
4.680, 0.00000, 4.690, 0.00000, 4.700, 0.00000, 4.710, 0.00000
4.720, 0.00000, 4.730, 0.00000, 4.740, 0.00000, 4.750, 0.00000
4.760, 0.00000, 4.770, 0.00000, 4.780, 0.00000, 4.790, 0.00000
4.800, 0.00000, 4.810, 0.00000, 4.820, 0.00000, 4.830, 0.00000
4.840, 0.00000, 4.850, 0.00000, 4.860, 0.00000, 4.870, 0.00000
4.880, 0.00000, 4.890, 0.00000, 4.900, 0.00000, 4.910, 0.00000
4.920, 0.00000, 4.930, 0.00000, 4.940, 0.00000, 4.950, 0.00000
4.960, 0.00000, 4.970, 0.00000, 4.980, 0.00000, 4.990, 0.00000
5.000, 0.00000, 5.010, 0.00000, 5.020, 0.00000, 5.030, 0.00000
5.040, 0.00000, 5.050, 0.00000, 5.060, 0.00000, 5.070, 0.00000
5.080, 0.00000, 5.090, 0.00000, 5.100, 0.00000, 5.110, 0.00000
5.120, 0.00000, 5.130, 0.00000, 5.140, 0.00000, 5.150, 0.00000
5.160, 0.00000, 5.170, 0.00000, 5.180, 0.00000, 5.190, 0.00000
5.200, 0.00000, 5.210, 0.00000, 5.220, 0.00000, 5.230, 0.00000
5.240, 0.00000, 5.250, 0.00000, 5.260, 0.00000, 5.270, 0.00000
5.280, 0.00000, 5.290, 0.00000, 5.300, 0.00000, 5.310, 0.00000
5.320, 0.00000, 5.330, 0.00000, 5.340, 0.00000, 5.350, 0.00000
5.360, 0.00000, 5.370, 0.00000, 5.380, 0.00000, 5.390, 0.00000
5.400, 0.00000, 5.410, 0.00000, 5.420, 0.00000, 5.430, 0.00000
5.440, 0.00000, 5.450, 0.00000, 5.460, 0.00000, 5.470, 0.00000
5.480, 0.00000, 5.490, 0.00000, 5.500, 0.00000, 5.510, 0.00000
5.520, 0.00000, 5.530, 0.00000, 5.540, 0.00000, 5.550, 0.00000
5.560, 0.00000, 5.570, 0.00000, 5.580, 0.00000, 5.590, 0.00000
5.600, 0.00000, 5.610, 0.00000, 5.620, 0.00000, 5.630, 0.00000
5.640, 0.00000, 5.650, 0.00000, 5.660, 0.00000, 5.670, 0.00000
5.680, 0.00000, 5.690, 0.00000, 5.700, 0.00000, 5.710, 0.00000
5.720, 0.00000, 5.730, 0.00000, 5.740, 0.00000, 5.750, 0.00000
5.760, 0.00000, 5.770, 0.00000, 5.780, 0.00000, 5.790, 0.00000
5.800, 0.00000, 5.810, 0.00000, 5.820, 0.00000, 5.830, 0.00000
5.840, 0.00000, 5.850, 0.00000, 5.860, 0.00000, 5.870, 0.00000
5.880, 0.00000, 5.890, 0.00000, 5.900, 0.00000, 5.910, 0.00000
5.920, 0.00000, 5.930, 0.00000, 5.940, 0.00000, 5.950, 0.00000
5.960, 0.00000, 5.970, 0.00000, 5.980, 0.00000, 5.990, 0.00000
6.000, 0.00000, 6.010, 3937.86016, 6.020, 7875.72031, 6.030, 11813.58047
6.040, 15751.44063, 6.050, 19689.30079, 6.060, 18704.83575, 6.070, 17720.37071
6.080, 16735.90567, 6.090, 15751.44063, 6.100, 14766.97559, 6.110, 13782.51055
6.120, 12798.04551, 6.130, 11813.58047, 6.140, 10829.11543, 6.150, 9844.65039
6.160, 8860.18535, 6.170, 7875.72031, 6.180, 6891.25527, 6.190, 5906.79024
6.200, 4922.32520, 6.210, 3937.86016, 6.220, 2953.39512, 6.230, 1968.93008
6.240, 984.46504, 6.250, 0.00000, 6.260, 0.00000, 6.270, 0.00000
6.280, 0.00000, 6.290, 0.00000, 6.300, 0.00000, 6.310, 0.00000
6.320, 0.00000, 6.330, 0.00000, 6.340, 0.00000, 6.350, 0.00000
6.360, 0.00000, 6.370, 0.00000, 6.380, 0.00000, 6.390, 0.00000
6.400, 0.00000, 6.410, 0.00000, 6.420, 0.00000, 6.430, 0.00000
6.440, 0.00000, 6.450, 0.00000, 6.460, 0.00000, 6.470, 0.00000
6.480, 0.00000, 6.490, 0.00000, 6.500, 0.00000, 6.510, 0.00000
6.520, 0.00000, 6.530, 0.00000, 6.540, 0.00000, 6.550, 0.00000
6.560, 0.00000, 6.570, 0.00000, 6.580, 0.00000, 6.590, 0.00000
6.600, 0.00000, 6.610, 0.00000, 6.620, 0.00000, 6.630, 0.00000
6.640, 0.00000, 6.650, 0.00000, 6.660, 0.00000, 6.670, 0.00000
6.680, 0.00000, 6.690, 0.00000, 6.700, 0.00000, 6.710, 0.00000
6.720, 0.00000, 6.730, 0.00000, 6.740, 0.00000, 6.750, 0.00000
6.760, 0.00000, 6.770, 0.00000, 6.780, 0.00000, 6.790, 0.00000
6.800, 0.00000, 6.810, 0.00000, 6.820, 0.00000, 6.830, 0.00000
6.840, 0.00000, 6.850, 0.00000, 6.860, 0.00000, 6.870, 0.00000
6.880, 0.00000, 6.890, 0.00000, 6.900, 0.00000, 6.910, 0.00000
6.920, 0.00000, 6.930, 0.00000, 6.940, 0.00000, 6.950, 0.00000
6.960, 0.00000, 6.970, 0.00000, 6.980, 0.00000, 6.990, 0.00000
7.000, 0.00000, 7.010, 0.00000, 7.020, 0.00000, 7.030, 0.00000
7.040, 0.00000, 7.050, 0.00000, 7.060, 0.00000, 7.070, 0.00000
7.080, 0.00000, 7.090, 0.00000, 7.100, 0.00000, 7.110, 0.00000
7.120, 0.00000, 7.130, 0.00000, 7.140, 0.00000, 7.150, 0.00000
7.160, 0.00000, 7.170, 0.00000, 7.180, 0.00000, 7.190, 0.00000
7.200, 0.00000, 7.210, 0.00000, 7.220, 0.00000, 7.230, 0.00000
7.240, 0.00000, 7.250, 0.00000, 7.260, 0.00000, 7.270, 0.00000
7.280, 0.00000, 7.290, 0.00000, 7.300, 0.00000, 7.310, 0.00000
7.320, 0.00000, 7.330, 0.00000, 7.340, 0.00000, 7.350, 0.00000
7.360, 0.00000, 7.370, 0.00000, 7.380, 0.00000, 7.390, 0.00000
7.400, 0.00000, 7.410, 0.00000, 7.420, 0.00000, 7.430, 0.00000
7.440, 0.00000, 7.450, 0.00000, 7.460, 0.00000, 7.470, 0.00000
7.480, 0.00000, 7.490, 0.00000, 7.500, 0.00000, 7.510, 0.00000
7.520, 0.00000, 7.530, 0.00000, 7.540, 0.00000, 7.550, 0.00000
7.560, 0.00000, 7.570, 0.00000, 7.580, 0.00000, 7.590, 0.00000
7.600, 0.00000, 7.610, 0.00000, 7.620, 0.00000, 7.630, 0.00000
7.640, 0.00000, 7.650, 0.00000, 7.660, 0.00000, 7.670, 0.00000
7.680, 0.00000, 7.690, 0.00000, 7.700, 0.00000, 7.710, 0.00000
7.720, 0.00000, 7.730, 0.00000, 7.740, 0.00000, 7.750, 0.00000
7.760, 0.00000, 7.770, 0.00000, 7.780, 0.00000, 7.790, 0.00000
7.800, 0.00000, 7.810, 0.00000, 7.820, 0.00000, 7.830, 0.00000
7.840, 0.00000, 7.850, 0.00000, 7.860, 0.00000, 7.870, 0.00000
7.880, 0.00000, 7.890, 0.00000, 7.900, 0.00000, 7.910, 0.00000
7.920, 0.00000, 7.930, 0.00000, 7.940, 0.00000, 7.950, 0.00000
7.960, 0.00000, 7.970, 0.00000, 7.980, 0.00000, 7.990, 0.00000
8.000, 0.00000, 8.010, 3797.60810, 8.020, 7595.21619, 8.030, 11392.82429
8.040, 15190.43239, 8.050, 18988.04049, 8.060, 18038.63846, 8.070, 17089.23644
8.080, 16139.83441, 8.090, 15190.43239, 8.100, 14241.03037, 8.110, 13291.62834
8.120, 12342.22632, 8.130, 11392.82429, 8.140, 10443.42227, 8.150, 9494.02024
8.160, 8544.61822, 8.170, 7595.21619, 8.180, 6645.81417, 8.190, 5696.41215
8.200, 4747.01012, 8.210, 3797.60810, 8.220, 2848.20607, 8.230, 1898.80405
8.240, 949.40202, 8.250, 0.00000, 8.260, 0.00000, 8.270, 0.00000
8.280, 0.00000, 8.290, 0.00000, 8.300, 0.00000, 8.310, 0.00000
8.320, 0.00000, 8.330, 0.00000, 8.340, 0.00000, 8.350, 0.00000
8.360, 0.00000, 8.370, 0.00000, 8.380, 0.00000, 8.390, 0.00000
8.400, 0.00000, 8.410, 0.00000, 8.420, 0.00000, 8.430, 0.00000
8.440, 0.00000, 8.450, 0.00000, 8.460, 0.00000, 8.470, 0.00000
8.480, 0.00000, 8.490, 0.00000, 8.500, 0.00000, 8.510, 0.00000
8.520, 0.00000, 8.530, 0.00000, 8.540, 0.00000, 8.550, 0.00000
8.560, 0.00000, 8.570, 0.00000, 8.580, 0.00000, 8.590, 0.00000
8.600, 0.00000, 8.610, 0.00000, 8.620, 0.00000, 8.630, 0.00000
8.640, 0.00000, 8.650, 0.00000, 8.660, 0.00000, 8.670, 0.00000
8.680, 0.00000, 8.690, 0.00000, 8.700, 0.00000, 8.710, 0.00000
8.720, 0.00000, 8.730, 0.00000, 8.740, 0.00000, 8.750, 0.00000
8.760, 0.00000, 8.770, 0.00000, 8.780, 0.00000, 8.790, 0.00000
8.800, 0.00000, 8.810, 0.00000, 8.820, 0.00000, 8.830, 0.00000
8.840, 0.00000, 8.850, 0.00000, 8.860, 0.00000, 8.870, 0.00000
8.880, 0.00000, 8.890, 0.00000, 8.900, 0.00000, 8.910, 0.00000
8.920, 0.00000, 8.930, 0.00000, 8.940, 0.00000, 8.950, 0.00000
8.960, 0.00000, 8.970, 0.00000, 8.980, 0.00000, 8.990, 0.00000
9.000, 0.00000, 9.010, 0.00000, 9.020, 0.00000, 9.030, 0.00000
9.040, 0.00000, 9.050, 0.00000, 9.060, 0.00000, 9.070, 0.00000
9.080, 0.00000, 9.090, 0.00000, 9.100, 0.00000, 9.110, 0.00000
9.120, 0.00000, 9.130, 0.00000, 9.140, 0.00000, 9.150, 0.00000
9.160, 0.00000, 9.170, 0.00000, 9.180, 0.00000, 9.190, 0.00000
9.200, 0.00000, 9.210, 0.00000, 9.220, 0.00000, 9.230, 0.00000
9.240, 0.00000, 9.250, 0.00000, 9.260, 0.00000, 9.270, 0.00000
9.280, 0.00000, 9.290, 0.00000, 9.300, 0.00000, 9.310, 0.00000
9.320, 0.00000, 9.330, 0.00000, 9.340, 0.00000, 9.350, 0.00000
9.360, 0.00000, 9.370, 0.00000, 9.380, 0.00000, 9.390, 0.00000
9.400, 0.00000, 9.410, 0.00000, 9.420, 0.00000, 9.430, 0.00000
9.440, 0.00000, 9.450, 0.00000, 9.460, 0.00000, 9.470, 0.00000
9.480, 0.00000, 9.490, 0.00000, 9.500, 0.00000, 9.510, 0.00000
9.520, 0.00000, 9.530, 0.00000, 9.540, 0.00000, 9.550, 0.00000
9.560, 0.00000, 9.570, 0.00000, 9.580, 0.00000, 9.590, 0.00000
9.600, 0.00000, 9.610, 0.00000, 9.620, 0.00000, 9.630, 0.00000
9.640, 0.00000, 9.650, 0.00000, 9.660, 0.00000, 9.670, 0.00000
9.680, 0.00000, 9.690, 0.00000, 9.700, 0.00000, 9.710, 0.00000
9.720, 0.00000, 9.730, 0.00000, 9.740, 0.00000, 9.750, 0.00000
9.760, 0.00000, 9.770, 0.00000, 9.780, 0.00000, 9.790, 0.00000
9.800, 0.00000, 9.810, 0.00000, 9.820, 0.00000, 9.830, 0.00000
9.840, 0.00000, 9.850, 0.00000, 9.860, 0.00000, 9.870, 0.00000
9.880, 0.00000, 9.890, 0.00000, 9.900, 0.00000, 9.910, 0.00000
9.920, 0.00000, 9.930, 0.00000, 9.940, 0.00000, 9.950, 0.00000
9.960, 0.00000, 9.970, 0.00000, 9.980, 0.00000, 9.990, 0.00000
*AMPLITUDE, NAME=ROW8
0.000, 0.00000, 0.010, -1162.41019, 0.020, -2324.82039, 0.030, -3487.23058
0.040, -4649.64078, 0.050, -5812.05097, 0.060, -5521.44843, 0.070, -5230.84588
0.080, -4940.24333, 0.090, -4649.64078, 0.100, -4359.03823, 0.110, -4068.43568
0.120, -3777.83313, 0.130, -3487.23058, 0.140, -3196.62804, 0.150, -2906.02549
0.160, -2615.42294, 0.170, -2324.82039, 0.180, -2034.21784, 0.190, -1743.61529
0.200, -1453.01274, 0.210, -1162.41019, 0.220, -871.80765, 0.230, -581.20510
0.240, -290.60255, 0.250, 0.00000, 0.260, 0.00000, 0.270, 0.00000
0.280, 0.00000, 0.290, 0.00000, 0.300, 0.00000, 0.310, 0.00000
0.320, 0.00000, 0.330, 0.00000, 0.340, 0.00000, 0.350, 0.00000
0.360, 0.00000, 0.370, 0.00000, 0.380, 0.00000, 0.390, 0.00000
0.400, 0.00000, 0.410, 0.00000, 0.420, 0.00000, 0.430, 0.00000
0.440, 0.00000, 0.450, 0.00000, 0.460, 0.00000, 0.470, 0.00000
0.480, 0.00000, 0.490, 0.00000, 0.500, 0.00000, 0.510, 0.00000
0.520, 0.00000, 0.530, 0.00000, 0.540, 0.00000, 0.550, 0.00000
0.560, 0.00000, 0.570, 0.00000, 0.580, 0.00000, 0.590, 0.00000
0.600, 0.00000, 0.610, 0.00000, 0.620, 0.00000, 0.630, 0.00000
0.640, 0.00000, 0.650, 0.00000, 0.660, 0.00000, 0.670, 0.00000
0.680, 0.00000, 0.690, 0.00000, 0.700, 0.00000, 0.710, 0.00000
0.720, 0.00000, 0.730, 0.00000, 0.740, 0.00000, 0.750, 0.00000
0.760, 0.00000, 0.770, 0.00000, 0.780, 0.00000, 0.790, 0.00000
0.800, 0.00000, 0.810, 0.00000, 0.820, 0.00000, 0.830, 0.00000
0.840, 0.00000, 0.850, 0.00000, 0.860, 0.00000, 0.870, 0.00000
0.880, 0.00000, 0.890, 0.00000, 0.900, 0.00000, 0.910, 0.00000
0.920, 0.00000, 0.930, 0.00000, 0.940, 0.00000, 0.950, 0.00000
0.960, 0.00000, 0.970, 0.00000, 0.980, 0.00000, 0.990, 0.00000
1.000, 0.00000, 1.010, 0.00000, 1.020, 0.00000, 1.030, 0.00000
1.040, 0.00000, 1.050, 0.00000, 1.060, 0.00000, 1.070, 0.00000
1.080, 0.00000, 1.090, 0.00000, 1.100, 0.00000, 1.110, 0.00000
1.120, 0.00000, 1.130, 0.00000, 1.140, 0.00000, 1.150, 0.00000
1.160, 0.00000, 1.170, 0.00000, 1.180, 0.00000, 1.190, 0.00000
1.200, 0.00000, 1.210, 0.00000, 1.220, 0.00000, 1.230, 0.00000
1.240, 0.00000, 1.250, 0.00000, 1.260, 0.00000, 1.270, 0.00000
1.280, 0.00000, 1.290, 0.00000, 1.300, 0.00000, 1.310, 0.00000
1.320, 0.00000, 1.330, 0.00000, 1.340, 0.00000, 1.350, 0.00000
1.360, 0.00000, 1.370, 0.00000, 1.380, 0.00000, 1.390, 0.00000
1.400, 0.00000, 1.410, 0.00000, 1.420, 0.00000, 1.430, 0.00000
1.440, 0.00000, 1.450, 0.00000, 1.460, 0.00000, 1.470, 0.00000
1.480, 0.00000, 1.490, 0.00000, 1.500, 0.00000, 1.510, 0.00000
1.520, 0.00000, 1.530, 0.00000, 1.540, 0.00000, 1.550, 0.00000
1.560, 0.00000, 1.570, 0.00000, 1.580, 0.00000, 1.590, 0.00000
1.600, 0.00000, 1.610, 0.00000, 1.620, 0.00000, 1.630, 0.00000
1.640, 0.00000, 1.650, 0.00000, 1.660, 0.00000, 1.670, 0.00000
1.680, 0.00000, 1.690, 0.00000, 1.700, 0.00000, 1.710, 0.00000
1.720, 0.00000, 1.730, 0.00000, 1.740, 0.00000, 1.750, 0.00000
1.760, 0.00000, 1.770, 0.00000, 1.780, 0.00000, 1.790, 0.00000
1.800, 0.00000, 1.810, 0.00000, 1.820, 0.00000, 1.830, 0.00000
1.840, 0.00000, 1.850, 0.00000, 1.860, 0.00000, 1.870, 0.00000
1.880, 0.00000, 1.890, 0.00000, 1.900, 0.00000, 1.910, 0.00000
1.920, 0.00000, 1.930, 0.00000, 1.940, 0.00000, 1.950, 0.00000
1.960, 0.00000, 1.970, 0.00000, 1.980, 0.00000, 1.990, 0.00000
2.000, 0.00000, 2.010, -85.05976, 2.020, -170.11951, 2.030, -255.17927
2.040, -340.23902, 2.050, -425.29878, 2.060, -404.03384, 2.070, -382.76890
2.080, -361.50396, 2.090, -340.23902, 2.100, -318.97409, 2.110, -297.70915
2.120, -276.44421, 2.130, -255.17927, 2.140, -233.91433, 2.150, -212.64939
2.160, -191.38445, 2.170, -170.11951, 2.180, -148.85457, 2.190, -127.58963
2.200, -106.32470, 2.210, -85.05976, 2.220, -63.79482, 2.230, -42.52988
2.240, -21.26494, 2.250, 0.00000, 2.260, 0.00000, 2.270, 0.00000
2.280, 0.00000, 2.290, 0.00000, 2.300, 0.00000, 2.310, 0.00000
2.320, 0.00000, 2.330, 0.00000, 2.340, 0.00000, 2.350, 0.00000
2.360, 0.00000, 2.370, 0.00000, 2.380, 0.00000, 2.390, 0.00000
2.400, 0.00000, 2.410, 0.00000, 2.420, 0.00000, 2.430, 0.00000
2.440, 0.00000, 2.450, 0.00000, 2.460, 0.00000, 2.470, 0.00000
2.480, 0.00000, 2.490, 0.00000, 2.500, 0.00000, 2.510, 0.00000
2.520, 0.00000, 2.530, 0.00000, 2.540, 0.00000, 2.550, 0.00000
2.560, 0.00000, 2.570, 0.00000, 2.580, 0.00000, 2.590, 0.00000
2.600, 0.00000, 2.610, 0.00000, 2.620, 0.00000, 2.630, 0.00000
2.640, 0.00000, 2.650, 0.00000, 2.660, 0.00000, 2.670, 0.00000
2.680, 0.00000, 2.690, 0.00000, 2.700, 0.00000, 2.710, 0.00000
2.720, 0.00000, 2.730, 0.00000, 2.740, 0.00000, 2.750, 0.00000
2.760, 0.00000, 2.770, 0.00000, 2.780, 0.00000, 2.790, 0.00000
2.800, 0.00000, 2.810, 0.00000, 2.820, 0.00000, 2.830, 0.00000
2.840, 0.00000, 2.850, 0.00000, 2.860, 0.00000, 2.870, 0.00000
2.880, 0.00000, 2.890, 0.00000, 2.900, 0.00000, 2.910, 0.00000
2.920, 0.00000, 2.930, 0.00000, 2.940, 0.00000, 2.950, 0.00000
2.960, 0.00000, 2.970, 0.00000, 2.980, 0.00000, 2.990, 0.00000
3.000, 0.00000, 3.010, 0.00000, 3.020, 0.00000, 3.030, 0.00000
3.040, 0.00000, 3.050, 0.00000, 3.060, 0.00000, 3.070, 0.00000
3.080, 0.00000, 3.090, 0.00000, 3.100, 0.00000, 3.110, 0.00000
3.120, 0.00000, 3.130, 0.00000, 3.140, 0.00000, 3.150, 0.00000
3.160, 0.00000, 3.170, 0.00000, 3.180, 0.00000, 3.190, 0.00000
3.200, 0.00000, 3.210, 0.00000, 3.220, 0.00000, 3.230, 0.00000
3.240, 0.00000, 3.250, 0.00000, 3.260, 0.00000, 3.270, 0.00000
3.280, 0.00000, 3.290, 0.00000, 3.300, 0.00000, 3.310, 0.00000
3.320, 0.00000, 3.330, 0.00000, 3.340, 0.00000, 3.350, 0.00000
3.360, 0.00000, 3.370, 0.00000, 3.380, 0.00000, 3.390, 0.00000
3.400, 0.00000, 3.410, 0.00000, 3.420, 0.00000, 3.430, 0.00000
3.440, 0.00000, 3.450, 0.00000, 3.460, 0.00000, 3.470, 0.00000
3.480, 0.00000, 3.490, 0.00000, 3.500, 0.00000, 3.510, 0.00000
3.520, 0.00000, 3.530, 0.00000, 3.540, 0.00000, 3.550, 0.00000
3.560, 0.00000, 3.570, 0.00000, 3.580, 0.00000, 3.590, 0.00000
3.600, 0.00000, 3.610, 0.00000, 3.620, 0.00000, 3.630, 0.00000
3.640, 0.00000, 3.650, 0.00000, 3.660, 0.00000, 3.670, 0.00000
3.680, 0.00000, 3.690, 0.00000, 3.700, 0.00000, 3.710, 0.00000
3.720, 0.00000, 3.730, 0.00000, 3.740, 0.00000, 3.750, 0.00000
3.760, 0.00000, 3.770, 0.00000, 3.780, 0.00000, 3.790, 0.00000
3.800, 0.00000, 3.810, 0.00000, 3.820, 0.00000, 3.830, 0.00000
3.840, 0.00000, 3.850, 0.00000, 3.860, 0.00000, 3.870, 0.00000
3.880, 0.00000, 3.890, 0.00000, 3.900, 0.00000, 3.910, 0.00000
3.920, 0.00000, 3.930, 0.00000, 3.940, 0.00000, 3.950, 0.00000
3.960, 0.00000, 3.970, 0.00000, 3.980, 0.00000, 3.990, 0.00000
4.000, 0.00000, 4.010, 649.14785, 4.020, 1298.29569, 4.030, 1947.44354
4.040, 2596.59138, 4.050, 3245.73923, 4.060, 3083.45227, 4.070, 2921.16530
4.080, 2758.87834, 4.090, 2596.59138, 4.100, 2434.30442, 4.110, 2272.01746
4.120, 2109.73050, 4.130, 1947.44354, 4.140, 1785.15657, 4.150, 1622.86961
4.160, 1460.58265, 4.170, 1298.29569, 4.180, 1136.00873, 4.190, 973.72177
4.200, 811.43481, 4.210, 649.14785, 4.220, 486.86088, 4.230, 324.57392
4.240, 162.28696, 4.250, 0.00000, 4.260, 0.00000, 4.270, 0.00000
4.280, 0.00000, 4.290, 0.00000, 4.300, 0.00000, 4.310, 0.00000
4.320, 0.00000, 4.330, 0.00000, 4.340, 0.00000, 4.350, 0.00000
4.360, 0.00000, 4.370, 0.00000, 4.380, 0.00000, 4.390, 0.00000
4.400, 0.00000, 4.410, 0.00000, 4.420, 0.00000, 4.430, 0.00000
4.440, 0.00000, 4.450, 0.00000, 4.460, 0.00000, 4.470, 0.00000
4.480, 0.00000, 4.490, 0.00000, 4.500, 0.00000, 4.510, 0.00000
4.520, 0.00000, 4.530, 0.00000, 4.540, 0.00000, 4.550, 0.00000
4.560, 0.00000, 4.570, 0.00000, 4.580, 0.00000, 4.590, 0.00000
4.600, 0.00000, 4.610, 0.00000, 4.620, 0.00000, 4.630, 0.00000
4.640, 0.00000, 4.650, 0.00000, 4.660, 0.00000, 4.670, 0.00000
4.680, 0.00000, 4.690, 0.00000, 4.700, 0.00000, 4.710, 0.00000
4.720, 0.00000, 4.730, 0.00000, 4.740, 0.00000, 4.750, 0.00000
4.760, 0.00000, 4.770, 0.00000, 4.780, 0.00000, 4.790, 0.00000
4.800, 0.00000, 4.810, 0.00000, 4.820, 0.00000, 4.830, 0.00000
4.840, 0.00000, 4.850, 0.00000, 4.860, 0.00000, 4.870, 0.00000
4.880, 0.00000, 4.890, 0.00000, 4.900, 0.00000, 4.910, 0.00000
4.920, 0.00000, 4.930, 0.00000, 4.940, 0.00000, 4.950, 0.00000
4.960, 0.00000, 4.970, 0.00000, 4.980, 0.00000, 4.990, 0.00000
5.000, 0.00000, 5.010, 0.00000, 5.020, 0.00000, 5.030, 0.00000
5.040, 0.00000, 5.050, 0.00000, 5.060, 0.00000, 5.070, 0.00000
5.080, 0.00000, 5.090, 0.00000, 5.100, 0.00000, 5.110, 0.00000
5.120, 0.00000, 5.130, 0.00000, 5.140, 0.00000, 5.150, 0.00000
5.160, 0.00000, 5.170, 0.00000, 5.180, 0.00000, 5.190, 0.00000
5.200, 0.00000, 5.210, 0.00000, 5.220, 0.00000, 5.230, 0.00000
5.240, 0.00000, 5.250, 0.00000, 5.260, 0.00000, 5.270, 0.00000
5.280, 0.00000, 5.290, 0.00000, 5.300, 0.00000, 5.310, 0.00000
5.320, 0.00000, 5.330, 0.00000, 5.340, 0.00000, 5.350, 0.00000
5.360, 0.00000, 5.370, 0.00000, 5.380, 0.00000, 5.390, 0.00000
5.400, 0.00000, 5.410, 0.00000, 5.420, 0.00000, 5.430, 0.00000
5.440, 0.00000, 5.450, 0.00000, 5.460, 0.00000, 5.470, 0.00000
5.480, 0.00000, 5.490, 0.00000, 5.500, 0.00000, 5.510, 0.00000
5.520, 0.00000, 5.530, 0.00000, 5.540, 0.00000, 5.550, 0.00000
5.560, 0.00000, 5.570, 0.00000, 5.580, 0.00000, 5.590, 0.00000
5.600, 0.00000, 5.610, 0.00000, 5.620, 0.00000, 5.630, 0.00000
5.640, 0.00000, 5.650, 0.00000, 5.660, 0.00000, 5.670, 0.00000
5.680, 0.00000, 5.690, 0.00000, 5.700, 0.00000, 5.710, 0.00000
5.720, 0.00000, 5.730, 0.00000, 5.740, 0.00000, 5.750, 0.00000
5.760, 0.00000, 5.770, 0.00000, 5.780, 0.00000, 5.790, 0.00000
5.800, 0.00000, 5.810, 0.00000, 5.820, 0.00000, 5.830, 0.00000
5.840, 0.00000, 5.850, 0.00000, 5.860, 0.00000, 5.870, 0.00000
5.880, 0.00000, 5.890, 0.00000, 5.900, 0.00000, 5.910, 0.00000
5.920, 0.00000, 5.930, 0.00000, 5.940, 0.00000, 5.950, 0.00000
5.960, 0.00000, 5.970, 0.00000, 5.980, 0.00000, 5.990, 0.00000
6.000, 0.00000, 6.010, 1236.79293, 6.020, 2473.58586, 6.030, 3710.37878
6.040, 4947.17171, 6.050, 6183.96464, 6.060, 5874.76641, 6.070, 5565.56817
6.080, 5256.36994, 6.090, 4947.17171, 6.100, 4637.97348, 6.110, 4328.77525
6.120, 4019.57702, 6.130, 3710.37878, 6.140, 3401.18055, 6.150, 3091.98232
6.160, 2782.78409, 6.170, 2473.58586, 6.180, 2164.38762, 6.190, 1855.18939
6.200, 1545.99116, 6.210, 1236.79293, 6.220, 927.59470, 6.230, 618.39646
6.240, 309.19823, 6.250, 0.00000, 6.260, 0.00000, 6.270, 0.00000
6.280, 0.00000, 6.290, 0.00000, 6.300, 0.00000, 6.310, 0.00000
6.320, 0.00000, 6.330, 0.00000, 6.340, 0.00000, 6.350, 0.00000
6.360, 0.00000, 6.370, 0.00000, 6.380, 0.00000, 6.390, 0.00000
6.400, 0.00000, 6.410, 0.00000, 6.420, 0.00000, 6.430, 0.00000
6.440, 0.00000, 6.450, 0.00000, 6.460, 0.00000, 6.470, 0.00000
6.480, 0.00000, 6.490, 0.00000, 6.500, 0.00000, 6.510, 0.00000
6.520, 0.00000, 6.530, 0.00000, 6.540, 0.00000, 6.550, 0.00000
6.560, 0.00000, 6.570, 0.00000, 6.580, 0.00000, 6.590, 0.00000
6.600, 0.00000, 6.610, 0.00000, 6.620, 0.00000, 6.630, 0.00000
6.640, 0.00000, 6.650, 0.00000, 6.660, 0.00000, 6.670, 0.00000
6.680, 0.00000, 6.690, 0.00000, 6.700, 0.00000, 6.710, 0.00000
6.720, 0.00000, 6.730, 0.00000, 6.740, 0.00000, 6.750, 0.00000
6.760, 0.00000, 6.770, 0.00000, 6.780, 0.00000, 6.790, 0.00000
6.800, 0.00000, 6.810, 0.00000, 6.820, 0.00000, 6.830, 0.00000
6.840, 0.00000, 6.850, 0.00000, 6.860, 0.00000, 6.870, 0.00000
6.880, 0.00000, 6.890, 0.00000, 6.900, 0.00000, 6.910, 0.00000
6.920, 0.00000, 6.930, 0.00000, 6.940, 0.00000, 6.950, 0.00000
6.960, 0.00000, 6.970, 0.00000, 6.980, 0.00000, 6.990, 0.00000
7.000, 0.00000, 7.010, 0.00000, 7.020, 0.00000, 7.030, 0.00000
7.040, 0.00000, 7.050, 0.00000, 7.060, 0.00000, 7.070, 0.00000
7.080, 0.00000, 7.090, 0.00000, 7.100, 0.00000, 7.110, 0.00000
7.120, 0.00000, 7.130, 0.00000, 7.140, 0.00000, 7.150, 0.00000
7.160, 0.00000, 7.170, 0.00000, 7.180, 0.00000, 7.190, 0.00000
7.200, 0.00000, 7.210, 0.00000, 7.220, 0.00000, 7.230, 0.00000
7.240, 0.00000, 7.250, 0.00000, 7.260, 0.00000, 7.270, 0.00000
7.280, 0.00000, 7.290, 0.00000, 7.300, 0.00000, 7.310, 0.00000
7.320, 0.00000, 7.330, 0.00000, 7.340, 0.00000, 7.350, 0.00000
7.360, 0.00000, 7.370, 0.00000, 7.380, 0.00000, 7.390, 0.00000
7.400, 0.00000, 7.410, 0.00000, 7.420, 0.00000, 7.430, 0.00000
7.440, 0.00000, 7.450, 0.00000, 7.460, 0.00000, 7.470, 0.00000
7.480, 0.00000, 7.490, 0.00000, 7.500, 0.00000, 7.510, 0.00000
7.520, 0.00000, 7.530, 0.00000, 7.540, 0.00000, 7.550, 0.00000
7.560, 0.00000, 7.570, 0.00000, 7.580, 0.00000, 7.590, 0.00000
7.600, 0.00000, 7.610, 0.00000, 7.620, 0.00000, 7.630, 0.00000
7.640, 0.00000, 7.650, 0.00000, 7.660, 0.00000, 7.670, 0.00000
7.680, 0.00000, 7.690, 0.00000, 7.700, 0.00000, 7.710, 0.00000
7.720, 0.00000, 7.730, 0.00000, 7.740, 0.00000, 7.750, 0.00000
7.760, 0.00000, 7.770, 0.00000, 7.780, 0.00000, 7.790, 0.00000
7.800, 0.00000, 7.810, 0.00000, 7.820, 0.00000, 7.830, 0.00000
7.840, 0.00000, 7.850, 0.00000, 7.860, 0.00000, 7.870, 0.00000
7.880, 0.00000, 7.890, 0.00000, 7.900, 0.00000, 7.910, 0.00000
7.920, 0.00000, 7.930, 0.00000, 7.940, 0.00000, 7.950, 0.00000
7.960, 0.00000, 7.970, 0.00000, 7.980, 0.00000, 7.990, 0.00000
8.000, 0.00000, 8.010, 1740.87894, 8.020, 3481.75787, 8.030, 5222.63681
8.040, 6963.51574, 8.050, 8704.39468, 8.060, 8269.17495, 8.070, 7833.95521
8.080, 7398.73548, 8.090, 6963.51574, 8.100, 6528.29601, 8.110, 6093.07628
8.120, 5657.85654, 8.130, 5222.63681, 8.140, 4787.41707, 8.150, 4352.19734
8.160, 3916.97761, 8.170, 3481.75787, 8.180, 3046.53814, 8.190, 2611.31840
8.200, 2176.09867, 8.210, 1740.87894, 8.220, 1305.65920, 8.230, 870.43947
8.240, 435.21973, 8.250, 0.00000, 8.260, 0.00000, 8.270, 0.00000
8.280, 0.00000, 8.290, 0.00000, 8.300, 0.00000, 8.310, 0.00000
8.320, 0.00000, 8.330, 0.00000, 8.340, 0.00000, 8.350, 0.00000
8.360, 0.00000, 8.370, 0.00000, 8.380, 0.00000, 8.390, 0.00000
8.400, 0.00000, 8.410, 0.00000, 8.420, 0.00000, 8.430, 0.00000
8.440, 0.00000, 8.450, 0.00000, 8.460, 0.00000, 8.470, 0.00000
8.480, 0.00000, 8.490, 0.00000, 8.500, 0.00000, 8.510, 0.00000
8.520, 0.00000, 8.530, 0.00000, 8.540, 0.00000, 8.550, 0.00000
8.560, 0.00000, 8.570, 0.00000, 8.580, 0.00000, 8.590, 0.00000
8.600, 0.00000, 8.610, 0.00000, 8.620, 0.00000, 8.630, 0.00000
8.640, 0.00000, 8.650, 0.00000, 8.660, 0.00000, 8.670, 0.00000
8.680, 0.00000, 8.690, 0.00000, 8.700, 0.00000, 8.710, 0.00000
8.720, 0.00000, 8.730, 0.00000, 8.740, 0.00000, 8.750, 0.00000
8.760, 0.00000, 8.770, 0.00000, 8.780, 0.00000, 8.790, 0.00000
8.800, 0.00000, 8.810, 0.00000, 8.820, 0.00000, 8.830, 0.00000
8.840, 0.00000, 8.850, 0.00000, 8.860, 0.00000, 8.870, 0.00000
8.880, 0.00000, 8.890, 0.00000, 8.900, 0.00000, 8.910, 0.00000
8.920, 0.00000, 8.930, 0.00000, 8.940, 0.00000, 8.950, 0.00000
8.960, 0.00000, 8.970, 0.00000, 8.980, 0.00000, 8.990, 0.00000
9.000, 0.00000, 9.010, 0.00000, 9.020, 0.00000, 9.030, 0.00000
9.040, 0.00000, 9.050, 0.00000, 9.060, 0.00000, 9.070, 0.00000
9.080, 0.00000, 9.090, 0.00000, 9.100, 0.00000, 9.110, 0.00000
9.120, 0.00000, 9.130, 0.00000, 9.140, 0.00000, 9.150, 0.00000
9.160, 0.00000, 9.170, 0.00000, 9.180, 0.00000, 9.190, 0.00000
9.200, 0.00000, 9.210, 0.00000, 9.220, 0.00000, 9.230, 0.00000
9.240, 0.00000, 9.250, 0.00000, 9.260, 0.00000, 9.270, 0.00000
9.280, 0.00000, 9.290, 0.00000, 9.300, 0.00000, 9.310, 0.00000
9.320, 0.00000, 9.330, 0.00000, 9.340, 0.00000, 9.350, 0.00000
9.360, 0.00000, 9.370, 0.00000, 9.380, 0.00000, 9.390, 0.00000
9.400, 0.00000, 9.410, 0.00000, 9.420, 0.00000, 9.430, 0.00000
9.440, 0.00000, 9.450, 0.00000, 9.460, 0.00000, 9.470, 0.00000
9.480, 0.00000, 9.490, 0.00000, 9.500, 0.00000, 9.510, 0.00000
9.520, 0.00000, 9.530, 0.00000, 9.540, 0.00000, 9.550, 0.00000
9.560, 0.00000, 9.570, 0.00000, 9.580, 0.00000, 9.590, 0.00000
9.600, 0.00000, 9.610, 0.00000, 9.620, 0.00000, 9.630, 0.00000
9.640, 0.00000, 9.650, 0.00000, 9.660, 0.00000, 9.670, 0.00000
9.680, 0.00000, 9.690, 0.00000, 9.700, 0.00000, 9.710, 0.00000
9.720, 0.00000, 9.730, 0.00000, 9.740, 0.00000, 9.750, 0.00000
9.760, 0.00000, 9.770, 0.00000, 9.780, 0.00000, 9.790, 0.00000
9.800, 0.00000, 9.810, 0.00000, 9.820, 0.00000, 9.830, 0.00000
9.840, 0.00000, 9.850, 0.00000, 9.860, 0.00000, 9.870, 0.00000
9.880, 0.00000, 9.890, 0.00000, 9.900, 0.00000, 9.910, 0.00000
9.920, 0.00000, 9.930, 0.00000, 9.940, 0.00000, 9.950, 0.00000
9.960, 0.00000, 9.970, 0.00000, 9.980, 0.00000, 9.990, 0.00000
*AMPLITUDE, NAME=ROW9
0.000, 0.00000, 0.010, -4749.57221, 0.020, -9499.14442, 0.030, -14248.71662
0.040, -18998.28883, 0.050, -23747.86104, 0.060, -22560.46799, 0.070, -21373.07494
0.080, -20185.68188, 0.090, -18998.28883, 0.100, -17810.89578, 0.110, -16623.50273
0.120, -15436.10968, 0.130, -14248.71662, 0.140, -13061.32357, 0.150, -11873.93052
0.160, -10686.53747, 0.170, -9499.14442, 0.180, -8311.75136, 0.190, -7124.35831
0.200, -5936.96526, 0.210, -4749.57221, 0.220, -3562.17916, 0.230, -2374.78610
0.240, -1187.39305, 0.250, 0.00000, 0.260, 0.00000, 0.270, 0.00000
0.280, 0.00000, 0.290, 0.00000, 0.300, 0.00000, 0.310, 0.00000
0.320, 0.00000, 0.330, 0.00000, 0.340, 0.00000, 0.350, 0.00000
0.360, 0.00000, 0.370, 0.00000, 0.380, 0.00000, 0.390, 0.00000
0.400, 0.00000, 0.410, 0.00000, 0.420, 0.00000, 0.430, 0.00000
0.440, 0.00000, 0.450, 0.00000, 0.460, 0.00000, 0.470, 0.00000
0.480, 0.00000, 0.490, 0.00000, 0.500, 0.00000, 0.510, 0.00000
0.520, 0.00000, 0.530, 0.00000, 0.540, 0.00000, 0.550, 0.00000
0.560, 0.00000, 0.570, 0.00000, 0.580, 0.00000, 0.590, 0.00000
0.600, 0.00000, 0.610, 0.00000, 0.620, 0.00000, 0.630, 0.00000
0.640, 0.00000, 0.650, 0.00000, 0.660, 0.00000, 0.670, 0.00000
0.680, 0.00000, 0.690, 0.00000, 0.700, 0.00000, 0.710, 0.00000
0.720, 0.00000, 0.730, 0.00000, 0.740, 0.00000, 0.750, 0.00000
0.760, 0.00000, 0.770, 0.00000, 0.780, 0.00000, 0.790, 0.00000
0.800, 0.00000, 0.810, 0.00000, 0.820, 0.00000, 0.830, 0.00000
0.840, 0.00000, 0.850, 0.00000, 0.860, 0.00000, 0.870, 0.00000
0.880, 0.00000, 0.890, 0.00000, 0.900, 0.00000, 0.910, 0.00000
0.920, 0.00000, 0.930, 0.00000, 0.940, 0.00000, 0.950, 0.00000
0.960, 0.00000, 0.970, 0.00000, 0.980, 0.00000, 0.990, 0.00000
1.000, 0.00000, 1.010, 0.00000, 1.020, 0.00000, 1.030, 0.00000
1.040, 0.00000, 1.050, 0.00000, 1.060, 0.00000, 1.070, 0.00000
1.080, 0.00000, 1.090, 0.00000, 1.100, 0.00000, 1.110, 0.00000
1.120, 0.00000, 1.130, 0.00000, 1.140, 0.00000, 1.150, 0.00000
1.160, 0.00000, 1.170, 0.00000, 1.180, 0.00000, 1.190, 0.00000
1.200, 0.00000, 1.210, 0.00000, 1.220, 0.00000, 1.230, 0.00000
1.240, 0.00000, 1.250, 0.00000, 1.260, 0.00000, 1.270, 0.00000
1.280, 0.00000, 1.290, 0.00000, 1.300, 0.00000, 1.310, 0.00000
1.320, 0.00000, 1.330, 0.00000, 1.340, 0.00000, 1.350, 0.00000
1.360, 0.00000, 1.370, 0.00000, 1.380, 0.00000, 1.390, 0.00000
1.400, 0.00000, 1.410, 0.00000, 1.420, 0.00000, 1.430, 0.00000
1.440, 0.00000, 1.450, 0.00000, 1.460, 0.00000, 1.470, 0.00000
1.480, 0.00000, 1.490, 0.00000, 1.500, 0.00000, 1.510, 0.00000
1.520, 0.00000, 1.530, 0.00000, 1.540, 0.00000, 1.550, 0.00000
1.560, 0.00000, 1.570, 0.00000, 1.580, 0.00000, 1.590, 0.00000
1.600, 0.00000, 1.610, 0.00000, 1.620, 0.00000, 1.630, 0.00000
1.640, 0.00000, 1.650, 0.00000, 1.660, 0.00000, 1.670, 0.00000
1.680, 0.00000, 1.690, 0.00000, 1.700, 0.00000, 1.710, 0.00000
1.720, 0.00000, 1.730, 0.00000, 1.740, 0.00000, 1.750, 0.00000
1.760, 0.00000, 1.770, 0.00000, 1.780, 0.00000, 1.790, 0.00000
1.800, 0.00000, 1.810, 0.00000, 1.820, 0.00000, 1.830, 0.00000
1.840, 0.00000, 1.850, 0.00000, 1.860, 0.00000, 1.870, 0.00000
1.880, 0.00000, 1.890, 0.00000, 1.900, 0.00000, 1.910, 0.00000
1.920, 0.00000, 1.930, 0.00000, 1.940, 0.00000, 1.950, 0.00000
1.960, 0.00000, 1.970, 0.00000, 1.980, 0.00000, 1.990, 0.00000
2.000, 0.00000, 2.010, -4033.84317, 2.020, -8067.68634, 2.030, -12101.52951
2.040, -16135.37268, 2.050, -20169.21586, 2.060, -19160.75506, 2.070, -18152.29427
2.080, -17143.83348, 2.090, -16135.37268, 2.100, -15126.91189, 2.110, -14118.45110
2.120, -13109.99031, 2.130, -12101.52951, 2.140, -11093.06872, 2.150, -10084.60793
2.160, -9076.14714, 2.170, -8067.68634, 2.180, -7059.22555, 2.190, -6050.76476
2.200, -5042.30396, 2.210, -4033.84317, 2.220, -3025.38238, 2.230, -2016.92159
2.240, -1008.46079, 2.250, 0.00000, 2.260, 0.00000, 2.270, 0.00000
2.280, 0.00000, 2.290, 0.00000, 2.300, 0.00000, 2.310, 0.00000
2.320, 0.00000, 2.330, 0.00000, 2.340, 0.00000, 2.350, 0.00000
2.360, 0.00000, 2.370, 0.00000, 2.380, 0.00000, 2.390, 0.00000
2.400, 0.00000, 2.410, 0.00000, 2.420, 0.00000, 2.430, 0.00000
2.440, 0.00000, 2.450, 0.00000, 2.460, 0.00000, 2.470, 0.00000
2.480, 0.00000, 2.490, 0.00000, 2.500, 0.00000, 2.510, 0.00000
2.520, 0.00000, 2.530, 0.00000, 2.540, 0.00000, 2.550, 0.00000
2.560, 0.00000, 2.570, 0.00000, 2.580, 0.00000, 2.590, 0.00000
2.600, 0.00000, 2.610, 0.00000, 2.620, 0.00000, 2.630, 0.00000
2.640, 0.00000, 2.650, 0.00000, 2.660, 0.00000, 2.670, 0.00000
2.680, 0.00000, 2.690, 0.00000, 2.700, 0.00000, 2.710, 0.00000
2.720, 0.00000, 2.730, 0.00000, 2.740, 0.00000, 2.750, 0.00000
2.760, 0.00000, 2.770, 0.00000, 2.780, 0.00000, 2.790, 0.00000
2.800, 0.00000, 2.810, 0.00000, 2.820, 0.00000, 2.830, 0.00000
2.840, 0.00000, 2.850, 0.00000, 2.860, 0.00000, 2.870, 0.00000
2.880, 0.00000, 2.890, 0.00000, 2.900, 0.00000, 2.910, 0.00000
2.920, 0.00000, 2.930, 0.00000, 2.940, 0.00000, 2.950, 0.00000
2.960, 0.00000, 2.970, 0.00000, 2.980, 0.00000, 2.990, 0.00000
3.000, 0.00000, 3.010, 0.00000, 3.020, 0.00000, 3.030, 0.00000
3.040, 0.00000, 3.050, 0.00000, 3.060, 0.00000, 3.070, 0.00000
3.080, 0.00000, 3.090, 0.00000, 3.100, 0.00000, 3.110, 0.00000
3.120, 0.00000, 3.130, 0.00000, 3.140, 0.00000, 3.150, 0.00000
3.160, 0.00000, 3.170, 0.00000, 3.180, 0.00000, 3.190, 0.00000
3.200, 0.00000, 3.210, 0.00000, 3.220, 0.00000, 3.230, 0.00000
3.240, 0.00000, 3.250, 0.00000, 3.260, 0.00000, 3.270, 0.00000
3.280, 0.00000, 3.290, 0.00000, 3.300, 0.00000, 3.310, 0.00000
3.320, 0.00000, 3.330, 0.00000, 3.340, 0.00000, 3.350, 0.00000
3.360, 0.00000, 3.370, 0.00000, 3.380, 0.00000, 3.390, 0.00000
3.400, 0.00000, 3.410, 0.00000, 3.420, 0.00000, 3.430, 0.00000
3.440, 0.00000, 3.450, 0.00000, 3.460, 0.00000, 3.470, 0.00000
3.480, 0.00000, 3.490, 0.00000, 3.500, 0.00000, 3.510, 0.00000
3.520, 0.00000, 3.530, 0.00000, 3.540, 0.00000, 3.550, 0.00000
3.560, 0.00000, 3.570, 0.00000, 3.580, 0.00000, 3.590, 0.00000
3.600, 0.00000, 3.610, 0.00000, 3.620, 0.00000, 3.630, 0.00000
3.640, 0.00000, 3.650, 0.00000, 3.660, 0.00000, 3.670, 0.00000
3.680, 0.00000, 3.690, 0.00000, 3.700, 0.00000, 3.710, 0.00000
3.720, 0.00000, 3.730, 0.00000, 3.740, 0.00000, 3.750, 0.00000
3.760, 0.00000, 3.770, 0.00000, 3.780, 0.00000, 3.790, 0.00000
3.800, 0.00000, 3.810, 0.00000, 3.820, 0.00000, 3.830, 0.00000
3.840, 0.00000, 3.850, 0.00000, 3.860, 0.00000, 3.870, 0.00000
3.880, 0.00000, 3.890, 0.00000, 3.900, 0.00000, 3.910, 0.00000
3.920, 0.00000, 3.930, 0.00000, 3.940, 0.00000, 3.950, 0.00000
3.960, 0.00000, 3.970, 0.00000, 3.980, 0.00000, 3.990, 0.00000
4.000, 0.00000, 4.010, -3339.27727, 4.020, -6678.55453, 4.030, -10017.83180
4.040, -13357.10907, 4.050, -16696.38633, 4.060, -15861.56702, 4.070, -15026.74770
4.080, -14191.92838, 4.090, -13357.10907, 4.100, -12522.28975, 4.110, -11687.47043
4.120, -10852.65112, 4.130, -10017.83180, 4.140, -9183.01248, 4.150, -8348.19317
4.160, -7513.37385, 4.170, -6678.55453, 4.180, -5843.73522, 4.190, -5008.91590
4.200, -4174.09658, 4.210, -3339.27727, 4.220, -2504.45795, 4.230, -1669.63863
4.240, -834.81932, 4.250, 0.00000, 4.260, 0.00000, 4.270, 0.00000
4.280, 0.00000, 4.290, 0.00000, 4.300, 0.00000, 4.310, 0.00000
4.320, 0.00000, 4.330, 0.00000, 4.340, 0.00000, 4.350, 0.00000
4.360, 0.00000, 4.370, 0.00000, 4.380, 0.00000, 4.390, 0.00000
4.400, 0.00000, 4.410, 0.00000, 4.420, 0.00000, 4.430, 0.00000
4.440, 0.00000, 4.450, 0.00000, 4.460, 0.00000, 4.470, 0.00000
4.480, 0.00000, 4.490, 0.00000, 4.500, 0.00000, 4.510, 0.00000
4.520, 0.00000, 4.530, 0.00000, 4.540, 0.00000, 4.550, 0.00000
4.560, 0.00000, 4.570, 0.00000, 4.580, 0.00000, 4.590, 0.00000
4.600, 0.00000, 4.610, 0.00000, 4.620, 0.00000, 4.630, 0.00000
4.640, 0.00000, 4.650, 0.00000, 4.660, 0.00000, 4.670, 0.00000
4.680, 0.00000, 4.690, 0.00000, 4.700, 0.00000, 4.710, 0.00000
4.720, 0.00000, 4.730, 0.00000, 4.740, 0.00000, 4.750, 0.00000
4.760, 0.00000, 4.770, 0.00000, 4.780, 0.00000, 4.790, 0.00000
4.800, 0.00000, 4.810, 0.00000, 4.820, 0.00000, 4.830, 0.00000
4.840, 0.00000, 4.850, 0.00000, 4.860, 0.00000, 4.870, 0.00000
4.880, 0.00000, 4.890, 0.00000, 4.900, 0.00000, 4.910, 0.00000
4.920, 0.00000, 4.930, 0.00000, 4.940, 0.00000, 4.950, 0.00000
4.960, 0.00000, 4.970, 0.00000, 4.980, 0.00000, 4.990, 0.00000
5.000, 0.00000, 5.010, 0.00000, 5.020, 0.00000, 5.030, 0.00000
5.040, 0.00000, 5.050, 0.00000, 5.060, 0.00000, 5.070, 0.00000
5.080, 0.00000, 5.090, 0.00000, 5.100, 0.00000, 5.110, 0.00000
5.120, 0.00000, 5.130, 0.00000, 5.140, 0.00000, 5.150, 0.00000
5.160, 0.00000, 5.170, 0.00000, 5.180, 0.00000, 5.190, 0.00000
5.200, 0.00000, 5.210, 0.00000, 5.220, 0.00000, 5.230, 0.00000
5.240, 0.00000, 5.250, 0.00000, 5.260, 0.00000, 5.270, 0.00000
5.280, 0.00000, 5.290, 0.00000, 5.300, 0.00000, 5.310, 0.00000
5.320, 0.00000, 5.330, 0.00000, 5.340, 0.00000, 5.350, 0.00000
5.360, 0.00000, 5.370, 0.00000, 5.380, 0.00000, 5.390, 0.00000
5.400, 0.00000, 5.410, 0.00000, 5.420, 0.00000, 5.430, 0.00000
5.440, 0.00000, 5.450, 0.00000, 5.460, 0.00000, 5.470, 0.00000
5.480, 0.00000, 5.490, 0.00000, 5.500, 0.00000, 5.510, 0.00000
5.520, 0.00000, 5.530, 0.00000, 5.540, 0.00000, 5.550, 0.00000
5.560, 0.00000, 5.570, 0.00000, 5.580, 0.00000, 5.590, 0.00000
5.600, 0.00000, 5.610, 0.00000, 5.620, 0.00000, 5.630, 0.00000
5.640, 0.00000, 5.650, 0.00000, 5.660, 0.00000, 5.670, 0.00000
5.680, 0.00000, 5.690, 0.00000, 5.700, 0.00000, 5.710, 0.00000
5.720, 0.00000, 5.730, 0.00000, 5.740, 0.00000, 5.750, 0.00000
5.760, 0.00000, 5.770, 0.00000, 5.780, 0.00000, 5.790, 0.00000
5.800, 0.00000, 5.810, 0.00000, 5.820, 0.00000, 5.830, 0.00000
5.840, 0.00000, 5.850, 0.00000, 5.860, 0.00000, 5.870, 0.00000
5.880, 0.00000, 5.890, 0.00000, 5.900, 0.00000, 5.910, 0.00000
5.920, 0.00000, 5.930, 0.00000, 5.940, 0.00000, 5.950, 0.00000
5.960, 0.00000, 5.970, 0.00000, 5.980, 0.00000, 5.990, 0.00000
6.000, 0.00000, 6.010, -2799.82135, 6.020, -5599.64270, 6.030, -8399.46405
6.040, -11199.28540, 6.050, -13999.10675, 6.060, -13299.15141, 6.070, -12599.19608
6.080, -11899.24074, 6.090, -11199.28540, 6.100, -10499.33006, 6.110, -9799.37473
6.120, -9099.41939, 6.130, -8399.46405, 6.140, -7699.50871, 6.150, -6999.55338
6.160, -6299.59804, 6.170, -5599.64270, 6.180, -4899.68736, 6.190, -4199.73203
6.200, -3499.77669, 6.210, -2799.82135, 6.220, -2099.86601, 6.230, -1399.91068
6.240, -699.95534, 6.250, 0.00000, 6.260, 0.00000, 6.270, 0.00000
6.280, 0.00000, 6.290, 0.00000, 6.300, 0.00000, 6.310, 0.00000
6.320, 0.00000, 6.330, 0.00000, 6.340, 0.00000, 6.350, 0.00000
6.360, 0.00000, 6.370, 0.00000, 6.380, 0.00000, 6.390, 0.00000
6.400, 0.00000, 6.410, 0.00000, 6.420, 0.00000, 6.430, 0.00000
6.440, 0.00000, 6.450, 0.00000, 6.460, 0.00000, 6.470, 0.00000
6.480, 0.00000, 6.490, 0.00000, 6.500, 0.00000, 6.510, 0.00000
6.520, 0.00000, 6.530, 0.00000, 6.540, 0.00000, 6.550, 0.00000
6.560, 0.00000, 6.570, 0.00000, 6.580, 0.00000, 6.590, 0.00000
6.600, 0.00000, 6.610, 0.00000, 6.620, 0.00000, 6.630, 0.00000
6.640, 0.00000, 6.650, 0.00000, 6.660, 0.00000, 6.670, 0.00000
6.680, 0.00000, 6.690, 0.00000, 6.700, 0.00000, 6.710, 0.00000
6.720, 0.00000, 6.730, 0.00000, 6.740, 0.00000, 6.750, 0.00000
6.760, 0.00000, 6.770, 0.00000, 6.780, 0.00000, 6.790, 0.00000
6.800, 0.00000, 6.810, 0.00000, 6.820, 0.00000, 6.830, 0.00000
6.840, 0.00000, 6.850, 0.00000, 6.860, 0.00000, 6.870, 0.00000
6.880, 0.00000, 6.890, 0.00000, 6.900, 0.00000, 6.910, 0.00000
6.920, 0.00000, 6.930, 0.00000, 6.940, 0.00000, 6.950, 0.00000
6.960, 0.00000, 6.970, 0.00000, 6.980, 0.00000, 6.990, 0.00000
7.000, 0.00000, 7.010, 0.00000, 7.020, 0.00000, 7.030, 0.00000
7.040, 0.00000, 7.050, 0.00000, 7.060, 0.00000, 7.070, 0.00000
7.080, 0.00000, 7.090, 0.00000, 7.100, 0.00000, 7.110, 0.00000
7.120, 0.00000, 7.130, 0.00000, 7.140, 0.00000, 7.150, 0.00000
7.160, 0.00000, 7.170, 0.00000, 7.180, 0.00000, 7.190, 0.00000
7.200, 0.00000, 7.210, 0.00000, 7.220, 0.00000, 7.230, 0.00000
7.240, 0.00000, 7.250, 0.00000, 7.260, 0.00000, 7.270, 0.00000
7.280, 0.00000, 7.290, 0.00000, 7.300, 0.00000, 7.310, 0.00000
7.320, 0.00000, 7.330, 0.00000, 7.340, 0.00000, 7.350, 0.00000
7.360, 0.00000, 7.370, 0.00000, 7.380, 0.00000, 7.390, 0.00000
7.400, 0.00000, 7.410, 0.00000, 7.420, 0.00000, 7.430, 0.00000
7.440, 0.00000, 7.450, 0.00000, 7.460, 0.00000, 7.470, 0.00000
7.480, 0.00000, 7.490, 0.00000, 7.500, 0.00000, 7.510, 0.00000
7.520, 0.00000, 7.530, 0.00000, 7.540, 0.00000, 7.550, 0.00000
7.560, 0.00000, 7.570, 0.00000, 7.580, 0.00000, 7.590, 0.00000
7.600, 0.00000, 7.610, 0.00000, 7.620, 0.00000, 7.630, 0.00000
7.640, 0.00000, 7.650, 0.00000, 7.660, 0.00000, 7.670, 0.00000
7.680, 0.00000, 7.690, 0.00000, 7.700, 0.00000, 7.710, 0.00000
7.720, 0.00000, 7.730, 0.00000, 7.740, 0.00000, 7.750, 0.00000
7.760, 0.00000, 7.770, 0.00000, 7.780, 0.00000, 7.790, 0.00000
7.800, 0.00000, 7.810, 0.00000, 7.820, 0.00000, 7.830, 0.00000
7.840, 0.00000, 7.850, 0.00000, 7.860, 0.00000, 7.870, 0.00000
7.880, 0.00000, 7.890, 0.00000, 7.900, 0.00000, 7.910, 0.00000
7.920, 0.00000, 7.930, 0.00000, 7.940, 0.00000, 7.950, 0.00000
7.960, 0.00000, 7.970, 0.00000, 7.980, 0.00000, 7.990, 0.00000
8.000, 0.00000, 8.010, -2370.72331, 8.020, -4741.44663, 8.030, -7112.16994
8.040, -9482.89325, 8.050, -11853.61657, 8.060, -11260.93574, 8.070, -10668.25491
8.080, -10075.57408, 8.090, -9482.89325, 8.100, -8890.21242, 8.110, -8297.53160
8.120, -7704.85077, 8.130, -7112.16994, 8.140, -6519.48911, 8.150, -5926.80828
8.160, -5334.12745, 8.170, -4741.44663, 8.180, -4148.76580, 8.190, -3556.08497
8.200, -2963.40414, 8.210, -2370.72331, 8.220, -1778.04248, 8.230, -1185.36166
8.240, -592.68083, 8.250, 0.00000, 8.260, 0.00000, 8.270, 0.00000
8.280, 0.00000, 8.290, 0.00000, 8.300, 0.00000, 8.310, 0.00000
8.320, 0.00000, 8.330, 0.00000, 8.340, 0.00000, 8.350, 0.00000
8.360, 0.00000, 8.370, 0.00000, 8.380, 0.00000, 8.390, 0.00000
8.400, 0.00000, 8.410, 0.00000, 8.420, 0.00000, 8.430, 0.00000
8.440, 0.00000, 8.450, 0.00000, 8.460, 0.00000, 8.470, 0.00000
8.480, 0.00000, 8.490, 0.00000, 8.500, 0.00000, 8.510, 0.00000
8.520, 0.00000, 8.530, 0.00000, 8.540, 0.00000, 8.550, 0.00000
8.560, 0.00000, 8.570, 0.00000, 8.580, 0.00000, 8.590, 0.00000
8.600, 0.00000, 8.610, 0.00000, 8.620, 0.00000, 8.630, 0.00000
8.640, 0.00000, 8.650, 0.00000, 8.660, 0.00000, 8.670, 0.00000
8.680, 0.00000, 8.690, 0.00000, 8.700, 0.00000, 8.710, 0.00000
8.720, 0.00000, 8.730, 0.00000, 8.740, 0.00000, 8.750, 0.00000
8.760, 0.00000, 8.770, 0.00000, 8.780, 0.00000, 8.790, 0.00000
8.800, 0.00000, 8.810, 0.00000, 8.820, 0.00000, 8.830, 0.00000
8.840, 0.00000, 8.850, 0.00000, 8.860, 0.00000, 8.870, 0.00000
8.880, 0.00000, 8.890, 0.00000, 8.900, 0.00000, 8.910, 0.00000
8.920, 0.00000, 8.930, 0.00000, 8.940, 0.00000, 8.950, 0.00000
8.960, 0.00000, 8.970, 0.00000, 8.980, 0.00000, 8.990, 0.00000
9.000, 0.00000, 9.010, 0.00000, 9.020, 0.00000, 9.030, 0.00000
9.040, 0.00000, 9.050, 0.00000, 9.060, 0.00000, 9.070, 0.00000
9.080, 0.00000, 9.090, 0.00000, 9.100, 0.00000, 9.110, 0.00000
9.120, 0.00000, 9.130, 0.00000, 9.140, 0.00000, 9.150, 0.00000
9.160, 0.00000, 9.170, 0.00000, 9.180, 0.00000, 9.190, 0.00000
9.200, 0.00000, 9.210, 0.00000, 9.220, 0.00000, 9.230, 0.00000
9.240, 0.00000, 9.250, 0.00000, 9.260, 0.00000, 9.270, 0.00000
9.280, 0.00000, 9.290, 0.00000, 9.300, 0.00000, 9.310, 0.00000
9.320, 0.00000, 9.330, 0.00000, 9.340, 0.00000, 9.350, 0.00000
9.360, 0.00000, 9.370, 0.00000, 9.380, 0.00000, 9.390, 0.00000
9.400, 0.00000, 9.410, 0.00000, 9.420, 0.00000, 9.430, 0.00000
9.440, 0.00000, 9.450, 0.00000, 9.460, 0.00000, 9.470, 0.00000
9.480, 0.00000, 9.490, 0.00000, 9.500, 0.00000, 9.510, 0.00000
9.520, 0.00000, 9.530, 0.00000, 9.540, 0.00000, 9.550, 0.00000
9.560, 0.00000, 9.570, 0.00000, 9.580, 0.00000, 9.590, 0.00000
9.600, 0.00000, 9.610, 0.00000, 9.620, 0.00000, 9.630, 0.00000
9.640, 0.00000, 9.650, 0.00000, 9.660, 0.00000, 9.670, 0.00000
9.680, 0.00000, 9.690, 0.00000, 9.700, 0.00000, 9.710, 0.00000
9.720, 0.00000, 9.730, 0.00000, 9.740, 0.00000, 9.750, 0.00000
9.760, 0.00000, 9.770, 0.00000, 9.780, 0.00000, 9.790, 0.00000
9.800, 0.00000, 9.810, 0.00000, 9.820, 0.00000, 9.830, 0.00000
9.840, 0.00000, 9.850, 0.00000, 9.860, 0.00000, 9.870, 0.00000
9.880, 0.00000, 9.890, 0.00000, 9.900, 0.00000, 9.910, 0.00000
9.920, 0.00000, 9.930, 0.00000, 9.940, 0.00000, 9.950, 0.00000
9.960, 0.00000, 9.970, 0.00000, 9.980, 0.00000, 9.990, 0.00000
*AMPLITUDE, NAME=ROW10
0.000, 0.00000, 0.010, -4372.03222, 0.020, -8744.06444, 0.030, -13116.09665
0.040, -17488.12887, 0.050, -21860.16109, 0.060, -20767.15304, 0.070, -19674.14498
0.080, -18581.13693, 0.090, -17488.12887, 0.100, -16395.12082, 0.110, -15302.11276
0.120, -14209.10471, 0.130, -13116.09665, 0.140, -12023.08860, 0.150, -10930.08055
0.160, -9837.07249, 0.170, -8744.06444, 0.180, -7651.05638, 0.190, -6558.04833
0.200, -5465.04027, 0.210, -4372.03222, 0.220, -3279.02416, 0.230, -2186.01611
0.240, -1093.00805, 0.250, 0.00000, 0.260, 0.00000, 0.270, 0.00000
0.280, 0.00000, 0.290, 0.00000, 0.300, 0.00000, 0.310, 0.00000
0.320, 0.00000, 0.330, 0.00000, 0.340, 0.00000, 0.350, 0.00000
0.360, 0.00000, 0.370, 0.00000, 0.380, 0.00000, 0.390, 0.00000
0.400, 0.00000, 0.410, 0.00000, 0.420, 0.00000, 0.430, 0.00000
0.440, 0.00000, 0.450, 0.00000, 0.460, 0.00000, 0.470, 0.00000
0.480, 0.00000, 0.490, 0.00000, 0.500, 0.00000, 0.510, 0.00000
0.520, 0.00000, 0.530, 0.00000, 0.540, 0.00000, 0.550, 0.00000
0.560, 0.00000, 0.570, 0.00000, 0.580, 0.00000, 0.590, 0.00000
0.600, 0.00000, 0.610, 0.00000, 0.620, 0.00000, 0.630, 0.00000
0.640, 0.00000, 0.650, 0.00000, 0.660, 0.00000, 0.670, 0.00000
0.680, 0.00000, 0.690, 0.00000, 0.700, 0.00000, 0.710, 0.00000
0.720, 0.00000, 0.730, 0.00000, 0.740, 0.00000, 0.750, 0.00000
0.760, 0.00000, 0.770, 0.00000, 0.780, 0.00000, 0.790, 0.00000
0.800, 0.00000, 0.810, 0.00000, 0.820, 0.00000, 0.830, 0.00000
0.840, 0.00000, 0.850, 0.00000, 0.860, 0.00000, 0.870, 0.00000
0.880, 0.00000, 0.890, 0.00000, 0.900, 0.00000, 0.910, 0.00000
0.920, 0.00000, 0.930, 0.00000, 0.940, 0.00000, 0.950, 0.00000
0.960, 0.00000, 0.970, 0.00000, 0.980, 0.00000, 0.990, 0.00000
1.000, 0.00000, 1.010, 0.00000, 1.020, 0.00000, 1.030, 0.00000
1.040, 0.00000, 1.050, 0.00000, 1.060, 0.00000, 1.070, 0.00000
1.080, 0.00000, 1.090, 0.00000, 1.100, 0.00000, 1.110, 0.00000
1.120, 0.00000, 1.130, 0.00000, 1.140, 0.00000, 1.150, 0.00000
1.160, 0.00000, 1.170, 0.00000, 1.180, 0.00000, 1.190, 0.00000
1.200, 0.00000, 1.210, 0.00000, 1.220, 0.00000, 1.230, 0.00000
1.240, 0.00000, 1.250, 0.00000, 1.260, 0.00000, 1.270, 0.00000
1.280, 0.00000, 1.290, 0.00000, 1.300, 0.00000, 1.310, 0.00000
1.320, 0.00000, 1.330, 0.00000, 1.340, 0.00000, 1.350, 0.00000
1.360, 0.00000, 1.370, 0.00000, 1.380, 0.00000, 1.390, 0.00000
1.400, 0.00000, 1.410, 0.00000, 1.420, 0.00000, 1.430, 0.00000
1.440, 0.00000, 1.450, 0.00000, 1.460, 0.00000, 1.470, 0.00000
1.480, 0.00000, 1.490, 0.00000, 1.500, 0.00000, 1.510, 0.00000
1.520, 0.00000, 1.530, 0.00000, 1.540, 0.00000, 1.550, 0.00000
1.560, 0.00000, 1.570, 0.00000, 1.580, 0.00000, 1.590, 0.00000
1.600, 0.00000, 1.610, 0.00000, 1.620, 0.00000, 1.630, 0.00000
1.640, 0.00000, 1.650, 0.00000, 1.660, 0.00000, 1.670, 0.00000
1.680, 0.00000, 1.690, 0.00000, 1.700, 0.00000, 1.710, 0.00000
1.720, 0.00000, 1.730, 0.00000, 1.740, 0.00000, 1.750, 0.00000
1.760, 0.00000, 1.770, 0.00000, 1.780, 0.00000, 1.790, 0.00000
1.800, 0.00000, 1.810, 0.00000, 1.820, 0.00000, 1.830, 0.00000
1.840, 0.00000, 1.850, 0.00000, 1.860, 0.00000, 1.870, 0.00000
1.880, 0.00000, 1.890, 0.00000, 1.900, 0.00000, 1.910, 0.00000
1.920, 0.00000, 1.930, 0.00000, 1.940, 0.00000, 1.950, 0.00000
1.960, 0.00000, 1.970, 0.00000, 1.980, 0.00000, 1.990, 0.00000
2.000, 0.00000, 2.010, -4799.22578, 2.020, -9598.45157, 2.030, -14397.67735
2.040, -19196.90314, 2.050, -23996.12892, 2.060, -22796.32248, 2.070, -21596.51603
2.080, -20396.70958, 2.090, -19196.90314, 2.100, -17997.09669, 2.110, -16797.29025
2.120, -15597.48380, 2.130, -14397.67735, 2.140, -13197.87091, 2.150, -11998.06446
2.160, -10798.25802, 2.170, -9598.45157, 2.180, -8398.64512, 2.190, -7198.83868
2.200, -5999.03223, 2.210, -4799.22578, 2.220, -3599.41934, 2.230, -2399.61289
2.240, -1199.80645, 2.250, 0.00000, 2.260, 0.00000, 2.270, 0.00000
2.280, 0.00000, 2.290, 0.00000, 2.300, 0.00000, 2.310, 0.00000
2.320, 0.00000, 2.330, 0.00000, 2.340, 0.00000, 2.350, 0.00000
2.360, 0.00000, 2.370, 0.00000, 2.380, 0.00000, 2.390, 0.00000
2.400, 0.00000, 2.410, 0.00000, 2.420, 0.00000, 2.430, 0.00000
2.440, 0.00000, 2.450, 0.00000, 2.460, 0.00000, 2.470, 0.00000
2.480, 0.00000, 2.490, 0.00000, 2.500, 0.00000, 2.510, 0.00000
2.520, 0.00000, 2.530, 0.00000, 2.540, 0.00000, 2.550, 0.00000
2.560, 0.00000, 2.570, 0.00000, 2.580, 0.00000, 2.590, 0.00000
2.600, 0.00000, 2.610, 0.00000, 2.620, 0.00000, 2.630, 0.00000
2.640, 0.00000, 2.650, 0.00000, 2.660, 0.00000, 2.670, 0.00000
2.680, 0.00000, 2.690, 0.00000, 2.700, 0.00000, 2.710, 0.00000
2.720, 0.00000, 2.730, 0.00000, 2.740, 0.00000, 2.750, 0.00000
2.760, 0.00000, 2.770, 0.00000, 2.780, 0.00000, 2.790, 0.00000
2.800, 0.00000, 2.810, 0.00000, 2.820, 0.00000, 2.830, 0.00000
2.840, 0.00000, 2.850, 0.00000, 2.860, 0.00000, 2.870, 0.00000
2.880, 0.00000, 2.890, 0.00000, 2.900, 0.00000, 2.910, 0.00000
2.920, 0.00000, 2.930, 0.00000, 2.940, 0.00000, 2.950, 0.00000
2.960, 0.00000, 2.970, 0.00000, 2.980, 0.00000, 2.990, 0.00000
3.000, 0.00000, 3.010, 0.00000, 3.020, 0.00000, 3.030, 0.00000
3.040, 0.00000, 3.050, 0.00000, 3.060, 0.00000, 3.070, 0.00000
3.080, 0.00000, 3.090, 0.00000, 3.100, 0.00000, 3.110, 0.00000
3.120, 0.00000, 3.130, 0.00000, 3.140, 0.00000, 3.150, 0.00000
3.160, 0.00000, 3.170, 0.00000, 3.180, 0.00000, 3.190, 0.00000
3.200, 0.00000, 3.210, 0.00000, 3.220, 0.00000, 3.230, 0.00000
3.240, 0.00000, 3.250, 0.00000, 3.260, 0.00000, 3.270, 0.00000
3.280, 0.00000, 3.290, 0.00000, 3.300, 0.00000, 3.310, 0.00000
3.320, 0.00000, 3.330, 0.00000, 3.340, 0.00000, 3.350, 0.00000
3.360, 0.00000, 3.370, 0.00000, 3.380, 0.00000, 3.390, 0.00000
3.400, 0.00000, 3.410, 0.00000, 3.420, 0.00000, 3.430, 0.00000
3.440, 0.00000, 3.450, 0.00000, 3.460, 0.00000, 3.470, 0.00000
3.480, 0.00000, 3.490, 0.00000, 3.500, 0.00000, 3.510, 0.00000
3.520, 0.00000, 3.530, 0.00000, 3.540, 0.00000, 3.550, 0.00000
3.560, 0.00000, 3.570, 0.00000, 3.580, 0.00000, 3.590, 0.00000
3.600, 0.00000, 3.610, 0.00000, 3.620, 0.00000, 3.630, 0.00000
3.640, 0.00000, 3.650, 0.00000, 3.660, 0.00000, 3.670, 0.00000
3.680, 0.00000, 3.690, 0.00000, 3.700, 0.00000, 3.710, 0.00000
3.720, 0.00000, 3.730, 0.00000, 3.740, 0.00000, 3.750, 0.00000
3.760, 0.00000, 3.770, 0.00000, 3.780, 0.00000, 3.790, 0.00000
3.800, 0.00000, 3.810, 0.00000, 3.820, 0.00000, 3.830, 0.00000
3.840, 0.00000, 3.850, 0.00000, 3.860, 0.00000, 3.870, 0.00000
3.880, 0.00000, 3.890, 0.00000, 3.900, 0.00000, 3.910, 0.00000
3.920, 0.00000, 3.930, 0.00000, 3.940, 0.00000, 3.950, 0.00000
3.960, 0.00000, 3.970, 0.00000, 3.980, 0.00000, 3.990, 0.00000
4.000, 0.00000, 4.010, -5114.57869, 4.020, -10229.15737, 4.030, -15343.73606
4.040, -20458.31475, 4.050, -25572.89343, 4.060, -24294.24876, 4.070, -23015.60409
4.080, -21736.95942, 4.090, -20458.31475, 4.100, -19179.67008, 4.110, -17901.02540
4.120, -16622.38073, 4.130, -15343.73606, 4.140, -14065.09139, 4.150, -12786.44672
4.160, -11507.80205, 4.170, -10229.15737, 4.180, -8950.51270, 4.190, -7671.86803
4.200, -6393.22336, 4.210, -5114.57869, 4.220, -3835.93402, 4.230, -2557.28934
4.240, -1278.64467, 4.250, 0.00000, 4.260, 0.00000, 4.270, 0.00000
4.280, 0.00000, 4.290, 0.00000, 4.300, 0.00000, 4.310, 0.00000
4.320, 0.00000, 4.330, 0.00000, 4.340, 0.00000, 4.350, 0.00000
4.360, 0.00000, 4.370, 0.00000, 4.380, 0.00000, 4.390, 0.00000
4.400, 0.00000, 4.410, 0.00000, 4.420, 0.00000, 4.430, 0.00000
4.440, 0.00000, 4.450, 0.00000, 4.460, 0.00000, 4.470, 0.00000
4.480, 0.00000, 4.490, 0.00000, 4.500, 0.00000, 4.510, 0.00000
4.520, 0.00000, 4.530, 0.00000, 4.540, 0.00000, 4.550, 0.00000
4.560, 0.00000, 4.570, 0.00000, 4.580, 0.00000, 4.590, 0.00000
4.600, 0.00000, 4.610, 0.00000, 4.620, 0.00000, 4.630, 0.00000
4.640, 0.00000, 4.650, 0.00000, 4.660, 0.00000, 4.670, 0.00000
4.680, 0.00000, 4.690, 0.00000, 4.700, 0.00000, 4.710, 0.00000
4.720, 0.00000, 4.730, 0.00000, 4.740, 0.00000, 4.750, 0.00000
4.760, 0.00000, 4.770, 0.00000, 4.780, 0.00000, 4.790, 0.00000
4.800, 0.00000, 4.810, 0.00000, 4.820, 0.00000, 4.830, 0.00000
4.840, 0.00000, 4.850, 0.00000, 4.860, 0.00000, 4.870, 0.00000
4.880, 0.00000, 4.890, 0.00000, 4.900, 0.00000, 4.910, 0.00000
4.920, 0.00000, 4.930, 0.00000, 4.940, 0.00000, 4.950, 0.00000
4.960, 0.00000, 4.970, 0.00000, 4.980, 0.00000, 4.990, 0.00000
5.000, 0.00000, 5.010, 0.00000, 5.020, 0.00000, 5.030, 0.00000
5.040, 0.00000, 5.050, 0.00000, 5.060, 0.00000, 5.070, 0.00000
5.080, 0.00000, 5.090, 0.00000, 5.100, 0.00000, 5.110, 0.00000
5.120, 0.00000, 5.130, 0.00000, 5.140, 0.00000, 5.150, 0.00000
5.160, 0.00000, 5.170, 0.00000, 5.180, 0.00000, 5.190, 0.00000
5.200, 0.00000, 5.210, 0.00000, 5.220, 0.00000, 5.230, 0.00000
5.240, 0.00000, 5.250, 0.00000, 5.260, 0.00000, 5.270, 0.00000
5.280, 0.00000, 5.290, 0.00000, 5.300, 0.00000, 5.310, 0.00000
5.320, 0.00000, 5.330, 0.00000, 5.340, 0.00000, 5.350, 0.00000
5.360, 0.00000, 5.370, 0.00000, 5.380, 0.00000, 5.390, 0.00000
5.400, 0.00000, 5.410, 0.00000, 5.420, 0.00000, 5.430, 0.00000
5.440, 0.00000, 5.450, 0.00000, 5.460, 0.00000, 5.470, 0.00000
5.480, 0.00000, 5.490, 0.00000, 5.500, 0.00000, 5.510, 0.00000
5.520, 0.00000, 5.530, 0.00000, 5.540, 0.00000, 5.550, 0.00000
5.560, 0.00000, 5.570, 0.00000, 5.580, 0.00000, 5.590, 0.00000
5.600, 0.00000, 5.610, 0.00000, 5.620, 0.00000, 5.630, 0.00000
5.640, 0.00000, 5.650, 0.00000, 5.660, 0.00000, 5.670, 0.00000
5.680, 0.00000, 5.690, 0.00000, 5.700, 0.00000, 5.710, 0.00000
5.720, 0.00000, 5.730, 0.00000, 5.740, 0.00000, 5.750, 0.00000
5.760, 0.00000, 5.770, 0.00000, 5.780, 0.00000, 5.790, 0.00000
5.800, 0.00000, 5.810, 0.00000, 5.820, 0.00000, 5.830, 0.00000
5.840, 0.00000, 5.850, 0.00000, 5.860, 0.00000, 5.870, 0.00000
5.880, 0.00000, 5.890, 0.00000, 5.900, 0.00000, 5.910, 0.00000
5.920, 0.00000, 5.930, 0.00000, 5.940, 0.00000, 5.950, 0.00000
5.960, 0.00000, 5.970, 0.00000, 5.980, 0.00000, 5.990, 0.00000
6.000, 0.00000, 6.010, -5272.87793, 6.020, -10545.75587, 6.030, -15818.63380
6.040, -21091.51174, 6.050, -26364.38967, 6.060, -25046.17019, 6.070, -23727.95071
6.080, -22409.73122, 6.090, -21091.51174, 6.100, -19773.29226, 6.110, -18455.07277
6.120, -17136.85329, 6.130, -15818.63380, 6.140, -14500.41432, 6.150, -13182.19484
6.160, -11863.97535, 6.170, -10545.75587, 6.180, -9227.53639, 6.190, -7909.31690
6.200, -6591.09742, 6.210, -5272.87793, 6.220, -3954.65845, 6.230, -2636.43897
6.240, -1318.21948, 6.250, 0.00000, 6.260, 0.00000, 6.270, 0.00000
6.280, 0.00000, 6.290, 0.00000, 6.300, 0.00000, 6.310, 0.00000
6.320, 0.00000, 6.330, 0.00000, 6.340, 0.00000, 6.350, 0.00000
6.360, 0.00000, 6.370, 0.00000, 6.380, 0.00000, 6.390, 0.00000
6.400, 0.00000, 6.410, 0.00000, 6.420, 0.00000, 6.430, 0.00000
6.440, 0.00000, 6.450, 0.00000, 6.460, 0.00000, 6.470, 0.00000
6.480, 0.00000, 6.490, 0.00000, 6.500, 0.00000, 6.510, 0.00000
6.520, 0.00000, 6.530, 0.00000, 6.540, 0.00000, 6.550, 0.00000
6.560, 0.00000, 6.570, 0.00000, 6.580, 0.00000, 6.590, 0.00000
6.600, 0.00000, 6.610, 0.00000, 6.620, 0.00000, 6.630, 0.00000
6.640, 0.00000, 6.650, 0.00000, 6.660, 0.00000, 6.670, 0.00000
6.680, 0.00000, 6.690, 0.00000, 6.700, 0.00000, 6.710, 0.00000
6.720, 0.00000, 6.730, 0.00000, 6.740, 0.00000, 6.750, 0.00000
6.760, 0.00000, 6.770, 0.00000, 6.780, 0.00000, 6.790, 0.00000
6.800, 0.00000, 6.810, 0.00000, 6.820, 0.00000, 6.830, 0.00000
6.840, 0.00000, 6.850, 0.00000, 6.860, 0.00000, 6.870, 0.00000
6.880, 0.00000, 6.890, 0.00000, 6.900, 0.00000, 6.910, 0.00000
6.920, 0.00000, 6.930, 0.00000, 6.940, 0.00000, 6.950, 0.00000
6.960, 0.00000, 6.970, 0.00000, 6.980, 0.00000, 6.990, 0.00000
7.000, 0.00000, 7.010, 0.00000, 7.020, 0.00000, 7.030, 0.00000
7.040, 0.00000, 7.050, 0.00000, 7.060, 0.00000, 7.070, 0.00000
7.080, 0.00000, 7.090, 0.00000, 7.100, 0.00000, 7.110, 0.00000
7.120, 0.00000, 7.130, 0.00000, 7.140, 0.00000, 7.150, 0.00000
7.160, 0.00000, 7.170, 0.00000, 7.180, 0.00000, 7.190, 0.00000
7.200, 0.00000, 7.210, 0.00000, 7.220, 0.00000, 7.230, 0.00000
7.240, 0.00000, 7.250, 0.00000, 7.260, 0.00000, 7.270, 0.00000
7.280, 0.00000, 7.290, 0.00000, 7.300, 0.00000, 7.310, 0.00000
7.320, 0.00000, 7.330, 0.00000, 7.340, 0.00000, 7.350, 0.00000
7.360, 0.00000, 7.370, 0.00000, 7.380, 0.00000, 7.390, 0.00000
7.400, 0.00000, 7.410, 0.00000, 7.420, 0.00000, 7.430, 0.00000
7.440, 0.00000, 7.450, 0.00000, 7.460, 0.00000, 7.470, 0.00000
7.480, 0.00000, 7.490, 0.00000, 7.500, 0.00000, 7.510, 0.00000
7.520, 0.00000, 7.530, 0.00000, 7.540, 0.00000, 7.550, 0.00000
7.560, 0.00000, 7.570, 0.00000, 7.580, 0.00000, 7.590, 0.00000
7.600, 0.00000, 7.610, 0.00000, 7.620, 0.00000, 7.630, 0.00000
7.640, 0.00000, 7.650, 0.00000, 7.660, 0.00000, 7.670, 0.00000
7.680, 0.00000, 7.690, 0.00000, 7.700, 0.00000, 7.710, 0.00000
7.720, 0.00000, 7.730, 0.00000, 7.740, 0.00000, 7.750, 0.00000
7.760, 0.00000, 7.770, 0.00000, 7.780, 0.00000, 7.790, 0.00000
7.800, 0.00000, 7.810, 0.00000, 7.820, 0.00000, 7.830, 0.00000
7.840, 0.00000, 7.850, 0.00000, 7.860, 0.00000, 7.870, 0.00000
7.880, 0.00000, 7.890, 0.00000, 7.900, 0.00000, 7.910, 0.00000
7.920, 0.00000, 7.930, 0.00000, 7.940, 0.00000, 7.950, 0.00000
7.960, 0.00000, 7.970, 0.00000, 7.980, 0.00000, 7.990, 0.00000
8.000, 0.00000, 8.010, -5333.15743, 8.020, -10666.31486, 8.030, -15999.47228
8.040, -21332.62971, 8.050, -26665.78714, 8.060, -25332.49778, 8.070, -23999.20842
8.080, -22665.91907, 8.090, -21332.62971, 8.100, -19999.34035, 8.110, -18666.05100
8.120, -17332.76164, 8.130, -15999.47228, 8.140, -14666.18293, 8.150, -13332.89357
8.160, -11999.60421, 8.170, -10666.31486, 8.180, -9333.02550, 8.190, -7999.73614
8.200, -6666.44678, 8.210, -5333.15743, 8.220, -3999.86807, 8.230, -2666.57871
8.240, -1333.28936, 8.250, 0.00000, 8.260, 0.00000, 8.270, 0.00000
8.280, 0.00000, 8.290, 0.00000, 8.300, 0.00000, 8.310, 0.00000
8.320, 0.00000, 8.330, 0.00000, 8.340, 0.00000, 8.350, 0.00000
8.360, 0.00000, 8.370, 0.00000, 8.380, 0.00000, 8.390, 0.00000
8.400, 0.00000, 8.410, 0.00000, 8.420, 0.00000, 8.430, 0.00000
8.440, 0.00000, 8.450, 0.00000, 8.460, 0.00000, 8.470, 0.00000
8.480, 0.00000, 8.490, 0.00000, 8.500, 0.00000, 8.510, 0.00000
8.520, 0.00000, 8.530, 0.00000, 8.540, 0.00000, 8.550, 0.00000
8.560, 0.00000, 8.570, 0.00000, 8.580, 0.00000, 8.590, 0.00000
8.600, 0.00000, 8.610, 0.00000, 8.620, 0.00000, 8.630, 0.00000
8.640, 0.00000, 8.650, 0.00000, 8.660, 0.00000, 8.670, 0.00000
8.680, 0.00000, 8.690, 0.00000, 8.700, 0.00000, 8.710, 0.00000
8.720, 0.00000, 8.730, 0.00000, 8.740, 0.00000, 8.750, 0.00000
8.760, 0.00000, 8.770, 0.00000, 8.780, 0.00000, 8.790, 0.00000
8.800, 0.00000, 8.810, 0.00000, 8.820, 0.00000, 8.830, 0.00000
8.840, 0.00000, 8.850, 0.00000, 8.860, 0.00000, 8.870, 0.00000
8.880, 0.00000, 8.890, 0.00000, 8.900, 0.00000, 8.910, 0.00000
8.920, 0.00000, 8.930, 0.00000, 8.940, 0.00000, 8.950, 0.00000
8.960, 0.00000, 8.970, 0.00000, 8.980, 0.00000, 8.990, 0.00000
9.000, 0.00000, 9.010, 0.00000, 9.020, 0.00000, 9.030, 0.00000
9.040, 0.00000, 9.050, 0.00000, 9.060, 0.00000, 9.070, 0.00000
9.080, 0.00000, 9.090, 0.00000, 9.100, 0.00000, 9.110, 0.00000
9.120, 0.00000, 9.130, 0.00000, 9.140, 0.00000, 9.150, 0.00000
9.160, 0.00000, 9.170, 0.00000, 9.180, 0.00000, 9.190, 0.00000
9.200, 0.00000, 9.210, 0.00000, 9.220, 0.00000, 9.230, 0.00000
9.240, 0.00000, 9.250, 0.00000, 9.260, 0.00000, 9.270, 0.00000
9.280, 0.00000, 9.290, 0.00000, 9.300, 0.00000, 9.310, 0.00000
9.320, 0.00000, 9.330, 0.00000, 9.340, 0.00000, 9.350, 0.00000
9.360, 0.00000, 9.370, 0.00000, 9.380, 0.00000, 9.390, 0.00000
9.400, 0.00000, 9.410, 0.00000, 9.420, 0.00000, 9.430, 0.00000
9.440, 0.00000, 9.450, 0.00000, 9.460, 0.00000, 9.470, 0.00000
9.480, 0.00000, 9.490, 0.00000, 9.500, 0.00000, 9.510, 0.00000
9.520, 0.00000, 9.530, 0.00000, 9.540, 0.00000, 9.550, 0.00000
9.560, 0.00000, 9.570, 0.00000, 9.580, 0.00000, 9.590, 0.00000
9.600, 0.00000, 9.610, 0.00000, 9.620, 0.00000, 9.630, 0.00000
9.640, 0.00000, 9.650, 0.00000, 9.660, 0.00000, 9.670, 0.00000
9.680, 0.00000, 9.690, 0.00000, 9.700, 0.00000, 9.710, 0.00000
9.720, 0.00000, 9.730, 0.00000, 9.740, 0.00000, 9.750, 0.00000
9.760, 0.00000, 9.770, 0.00000, 9.780, 0.00000, 9.790, 0.00000
9.800, 0.00000, 9.810, 0.00000, 9.820, 0.00000, 9.830, 0.00000
9.840, 0.00000, 9.850, 0.00000, 9.860, 0.00000, 9.870, 0.00000
9.880, 0.00000, 9.890, 0.00000, 9.900, 0.00000, 9.910, 0.00000
9.920, 0.00000, 9.930, 0.00000, 9.940, 0.00000, 9.950, 0.00000
9.960, 0.00000, 9.970, 0.00000, 9.980, 0.00000, 9.990, 0.00000
*AMPLITUDE, NAME=ROW11
0.000, 0.00000, 0.010, -5023.03125, 0.020, -10046.06250, 0.030, -15069.09375
0.040, -20092.12500, 0.050, -25115.15625, 0.060, -23859.39844, 0.070, -22603.64063
0.080, -21347.88281, 0.090, -20092.12500, 0.100, -18836.36719, 0.110, -17580.60938
0.120, -16324.85156, 0.130, -15069.09375, 0.140, -13813.33594, 0.150, -12557.57813
0.160, -11301.82031, 0.170, -10046.06250, 0.180, -8790.30469, 0.190, -7534.54688
0.200, -6278.78906, 0.210, -5023.03125, 0.220, -3767.27344, 0.230, -2511.51563
0.240, -1255.75781, 0.250, 0.00000, 0.260, 0.00000, 0.270, 0.00000
0.280, 0.00000, 0.290, 0.00000, 0.300, 0.00000, 0.310, 0.00000
0.320, 0.00000, 0.330, 0.00000, 0.340, 0.00000, 0.350, 0.00000
0.360, 0.00000, 0.370, 0.00000, 0.380, 0.00000, 0.390, 0.00000
0.400, 0.00000, 0.410, 0.00000, 0.420, 0.00000, 0.430, 0.00000
0.440, 0.00000, 0.450, 0.00000, 0.460, 0.00000, 0.470, 0.00000
0.480, 0.00000, 0.490, 0.00000, 0.500, 0.00000, 0.510, 0.00000
0.520, 0.00000, 0.530, 0.00000, 0.540, 0.00000, 0.550, 0.00000
0.560, 0.00000, 0.570, 0.00000, 0.580, 0.00000, 0.590, 0.00000
0.600, 0.00000, 0.610, 0.00000, 0.620, 0.00000, 0.630, 0.00000
0.640, 0.00000, 0.650, 0.00000, 0.660, 0.00000, 0.670, 0.00000
0.680, 0.00000, 0.690, 0.00000, 0.700, 0.00000, 0.710, 0.00000
0.720, 0.00000, 0.730, 0.00000, 0.740, 0.00000, 0.750, 0.00000
0.760, 0.00000, 0.770, 0.00000, 0.780, 0.00000, 0.790, 0.00000
0.800, 0.00000, 0.810, 0.00000, 0.820, 0.00000, 0.830, 0.00000
0.840, 0.00000, 0.850, 0.00000, 0.860, 0.00000, 0.870, 0.00000
0.880, 0.00000, 0.890, 0.00000, 0.900, 0.00000, 0.910, 0.00000
0.920, 0.00000, 0.930, 0.00000, 0.940, 0.00000, 0.950, 0.00000
0.960, 0.00000, 0.970, 0.00000, 0.980, 0.00000, 0.990, 0.00000
1.000, 0.00000, 1.010, 0.00000, 1.020, 0.00000, 1.030, 0.00000
1.040, 0.00000, 1.050, 0.00000, 1.060, 0.00000, 1.070, 0.00000
1.080, 0.00000, 1.090, 0.00000, 1.100, 0.00000, 1.110, 0.00000
1.120, 0.00000, 1.130, 0.00000, 1.140, 0.00000, 1.150, 0.00000
1.160, 0.00000, 1.170, 0.00000, 1.180, 0.00000, 1.190, 0.00000
1.200, 0.00000, 1.210, 0.00000, 1.220, 0.00000, 1.230, 0.00000
1.240, 0.00000, 1.250, 0.00000, 1.260, 0.00000, 1.270, 0.00000
1.280, 0.00000, 1.290, 0.00000, 1.300, 0.00000, 1.310, 0.00000
1.320, 0.00000, 1.330, 0.00000, 1.340, 0.00000, 1.350, 0.00000
1.360, 0.00000, 1.370, 0.00000, 1.380, 0.00000, 1.390, 0.00000
1.400, 0.00000, 1.410, 0.00000, 1.420, 0.00000, 1.430, 0.00000
1.440, 0.00000, 1.450, 0.00000, 1.460, 0.00000, 1.470, 0.00000
1.480, 0.00000, 1.490, 0.00000, 1.500, 0.00000, 1.510, 0.00000
1.520, 0.00000, 1.530, 0.00000, 1.540, 0.00000, 1.550, 0.00000
1.560, 0.00000, 1.570, 0.00000, 1.580, 0.00000, 1.590, 0.00000
1.600, 0.00000, 1.610, 0.00000, 1.620, 0.00000, 1.630, 0.00000
1.640, 0.00000, 1.650, 0.00000, 1.660, 0.00000, 1.670, 0.00000
1.680, 0.00000, 1.690, 0.00000, 1.700, 0.00000, 1.710, 0.00000
1.720, 0.00000, 1.730, 0.00000, 1.740, 0.00000, 1.750, 0.00000
1.760, 0.00000, 1.770, 0.00000, 1.780, 0.00000, 1.790, 0.00000
1.800, 0.00000, 1.810, 0.00000, 1.820, 0.00000, 1.830, 0.00000
1.840, 0.00000, 1.850, 0.00000, 1.860, 0.00000, 1.870, 0.00000
1.880, 0.00000, 1.890, 0.00000, 1.900, 0.00000, 1.910, 0.00000
1.920, 0.00000, 1.930, 0.00000, 1.940, 0.00000, 1.950, 0.00000
1.960, 0.00000, 1.970, 0.00000, 1.980, 0.00000, 1.990, 0.00000
2.000, 0.00000, 2.010, -4976.47048, 2.020, -9952.94097, 2.030, -14929.41145
2.040, -19905.88193, 2.050, -24882.35241, 2.060, -23638.23479, 2.070, -22394.11717
2.080, -21149.99955, 2.090, -19905.88193, 2.100, -18661.76431, 2.110, -17417.64669
2.120, -16173.52907, 2.130, -14929.41145, 2.140, -13685.29383, 2.150, -12441.17621
2.160, -11197.05859, 2.170, -9952.94097, 2.180, -8708.82334, 2.190, -7464.70572
2.200, -6220.58810, 2.210, -4976.47048, 2.220, -3732.35286, 2.230, -2488.23524
2.240, -1244.11762, 2.250, 0.00000, 2.260, 0.00000, 2.270, 0.00000
2.280, 0.00000, 2.290, 0.00000, 2.300, 0.00000, 2.310, 0.00000
2.320, 0.00000, 2.330, 0.00000, 2.340, 0.00000, 2.350, 0.00000
2.360, 0.00000, 2.370, 0.00000, 2.380, 0.00000, 2.390, 0.00000
2.400, 0.00000, 2.410, 0.00000, 2.420, 0.00000, 2.430, 0.00000
2.440, 0.00000, 2.450, 0.00000, 2.460, 0.00000, 2.470, 0.00000
2.480, 0.00000, 2.490, 0.00000, 2.500, 0.00000, 2.510, 0.00000
2.520, 0.00000, 2.530, 0.00000, 2.540, 0.00000, 2.550, 0.00000
2.560, 0.00000, 2.570, 0.00000, 2.580, 0.00000, 2.590, 0.00000
2.600, 0.00000, 2.610, 0.00000, 2.620, 0.00000, 2.630, 0.00000
2.640, 0.00000, 2.650, 0.00000, 2.660, 0.00000, 2.670, 0.00000
2.680, 0.00000, 2.690, 0.00000, 2.700, 0.00000, 2.710, 0.00000
2.720, 0.00000, 2.730, 0.00000, 2.740, 0.00000, 2.750, 0.00000
2.760, 0.00000, 2.770, 0.00000, 2.780, 0.00000, 2.790, 0.00000
2.800, 0.00000, 2.810, 0.00000, 2.820, 0.00000, 2.830, 0.00000
2.840, 0.00000, 2.850, 0.00000, 2.860, 0.00000, 2.870, 0.00000
2.880, 0.00000, 2.890, 0.00000, 2.900, 0.00000, 2.910, 0.00000
2.920, 0.00000, 2.930, 0.00000, 2.940, 0.00000, 2.950, 0.00000
2.960, 0.00000, 2.970, 0.00000, 2.980, 0.00000, 2.990, 0.00000
3.000, 0.00000, 3.010, 0.00000, 3.020, 0.00000, 3.030, 0.00000
3.040, 0.00000, 3.050, 0.00000, 3.060, 0.00000, 3.070, 0.00000
3.080, 0.00000, 3.090, 0.00000, 3.100, 0.00000, 3.110, 0.00000
3.120, 0.00000, 3.130, 0.00000, 3.140, 0.00000, 3.150, 0.00000
3.160, 0.00000, 3.170, 0.00000, 3.180, 0.00000, 3.190, 0.00000
3.200, 0.00000, 3.210, 0.00000, 3.220, 0.00000, 3.230, 0.00000
3.240, 0.00000, 3.250, 0.00000, 3.260, 0.00000, 3.270, 0.00000
3.280, 0.00000, 3.290, 0.00000, 3.300, 0.00000, 3.310, 0.00000
3.320, 0.00000, 3.330, 0.00000, 3.340, 0.00000, 3.350, 0.00000
3.360, 0.00000, 3.370, 0.00000, 3.380, 0.00000, 3.390, 0.00000
3.400, 0.00000, 3.410, 0.00000, 3.420, 0.00000, 3.430, 0.00000
3.440, 0.00000, 3.450, 0.00000, 3.460, 0.00000, 3.470, 0.00000
3.480, 0.00000, 3.490, 0.00000, 3.500, 0.00000, 3.510, 0.00000
3.520, 0.00000, 3.530, 0.00000, 3.540, 0.00000, 3.550, 0.00000
3.560, 0.00000, 3.570, 0.00000, 3.580, 0.00000, 3.590, 0.00000
3.600, 0.00000, 3.610, 0.00000, 3.620, 0.00000, 3.630, 0.00000
3.640, 0.00000, 3.650, 0.00000, 3.660, 0.00000, 3.670, 0.00000
3.680, 0.00000, 3.690, 0.00000, 3.700, 0.00000, 3.710, 0.00000
3.720, 0.00000, 3.730, 0.00000, 3.740, 0.00000, 3.750, 0.00000
3.760, 0.00000, 3.770, 0.00000, 3.780, 0.00000, 3.790, 0.00000
3.800, 0.00000, 3.810, 0.00000, 3.820, 0.00000, 3.830, 0.00000
3.840, 0.00000, 3.850, 0.00000, 3.860, 0.00000, 3.870, 0.00000
3.880, 0.00000, 3.890, 0.00000, 3.900, 0.00000, 3.910, 0.00000
3.920, 0.00000, 3.930, 0.00000, 3.940, 0.00000, 3.950, 0.00000
3.960, 0.00000, 3.970, 0.00000, 3.980, 0.00000, 3.990, 0.00000
4.000, 0.00000, 4.010, -4931.88485, 4.020, -9863.76970, 4.030, -14795.65455
4.040, -19727.53941, 4.050, -24659.42426, 4.060, -23426.45304, 4.070, -22193.48183
4.080, -20960.51062, 4.090, -19727.53941, 4.100, -18494.56819, 4.110, -17261.59698
4.120, -16028.62577, 4.130, -14795.65455, 4.140, -13562.68334, 4.150, -12329.71213
4.160, -11096.74092, 4.170, -9863.76970, 4.180, -8630.79849, 4.190, -7397.82728
4.200, -6164.85606, 4.210, -4931.88485, 4.220, -3698.91364, 4.230, -2465.94243
4.240, -1232.97121, 4.250, 0.00000, 4.260, 0.00000, 4.270, 0.00000
4.280, 0.00000, 4.290, 0.00000, 4.300, 0.00000, 4.310, 0.00000
4.320, 0.00000, 4.330, 0.00000, 4.340, 0.00000, 4.350, 0.00000
4.360, 0.00000, 4.370, 0.00000, 4.380, 0.00000, 4.390, 0.00000
4.400, 0.00000, 4.410, 0.00000, 4.420, 0.00000, 4.430, 0.00000
4.440, 0.00000, 4.450, 0.00000, 4.460, 0.00000, 4.470, 0.00000
4.480, 0.00000, 4.490, 0.00000, 4.500, 0.00000, 4.510, 0.00000
4.520, 0.00000, 4.530, 0.00000, 4.540, 0.00000, 4.550, 0.00000
4.560, 0.00000, 4.570, 0.00000, 4.580, 0.00000, 4.590, 0.00000
4.600, 0.00000, 4.610, 0.00000, 4.620, 0.00000, 4.630, 0.00000
4.640, 0.00000, 4.650, 0.00000, 4.660, 0.00000, 4.670, 0.00000
4.680, 0.00000, 4.690, 0.00000, 4.700, 0.00000, 4.710, 0.00000
4.720, 0.00000, 4.730, 0.00000, 4.740, 0.00000, 4.750, 0.00000
4.760, 0.00000, 4.770, 0.00000, 4.780, 0.00000, 4.790, 0.00000
4.800, 0.00000, 4.810, 0.00000, 4.820, 0.00000, 4.830, 0.00000
4.840, 0.00000, 4.850, 0.00000, 4.860, 0.00000, 4.870, 0.00000
4.880, 0.00000, 4.890, 0.00000, 4.900, 0.00000, 4.910, 0.00000
4.920, 0.00000, 4.930, 0.00000, 4.940, 0.00000, 4.950, 0.00000
4.960, 0.00000, 4.970, 0.00000, 4.980, 0.00000, 4.990, 0.00000
5.000, 0.00000, 5.010, 0.00000, 5.020, 0.00000, 5.030, 0.00000
5.040, 0.00000, 5.050, 0.00000, 5.060, 0.00000, 5.070, 0.00000
5.080, 0.00000, 5.090, 0.00000, 5.100, 0.00000, 5.110, 0.00000
5.120, 0.00000, 5.130, 0.00000, 5.140, 0.00000, 5.150, 0.00000
5.160, 0.00000, 5.170, 0.00000, 5.180, 0.00000, 5.190, 0.00000
5.200, 0.00000, 5.210, 0.00000, 5.220, 0.00000, 5.230, 0.00000
5.240, 0.00000, 5.250, 0.00000, 5.260, 0.00000, 5.270, 0.00000
5.280, 0.00000, 5.290, 0.00000, 5.300, 0.00000, 5.310, 0.00000
5.320, 0.00000, 5.330, 0.00000, 5.340, 0.00000, 5.350, 0.00000
5.360, 0.00000, 5.370, 0.00000, 5.380, 0.00000, 5.390, 0.00000
5.400, 0.00000, 5.410, 0.00000, 5.420, 0.00000, 5.430, 0.00000
5.440, 0.00000, 5.450, 0.00000, 5.460, 0.00000, 5.470, 0.00000
5.480, 0.00000, 5.490, 0.00000, 5.500, 0.00000, 5.510, 0.00000
5.520, 0.00000, 5.530, 0.00000, 5.540, 0.00000, 5.550, 0.00000
5.560, 0.00000, 5.570, 0.00000, 5.580, 0.00000, 5.590, 0.00000
5.600, 0.00000, 5.610, 0.00000, 5.620, 0.00000, 5.630, 0.00000
5.640, 0.00000, 5.650, 0.00000, 5.660, 0.00000, 5.670, 0.00000
5.680, 0.00000, 5.690, 0.00000, 5.700, 0.00000, 5.710, 0.00000
5.720, 0.00000, 5.730, 0.00000, 5.740, 0.00000, 5.750, 0.00000
5.760, 0.00000, 5.770, 0.00000, 5.780, 0.00000, 5.790, 0.00000
5.800, 0.00000, 5.810, 0.00000, 5.820, 0.00000, 5.830, 0.00000
5.840, 0.00000, 5.850, 0.00000, 5.860, 0.00000, 5.870, 0.00000
5.880, 0.00000, 5.890, 0.00000, 5.900, 0.00000, 5.910, 0.00000
5.920, 0.00000, 5.930, 0.00000, 5.940, 0.00000, 5.950, 0.00000
5.960, 0.00000, 5.970, 0.00000, 5.980, 0.00000, 5.990, 0.00000
6.000, 0.00000, 6.010, -4921.70609, 6.020, -9843.41218, 6.030, -14765.11827
6.040, -19686.82435, 6.050, -24608.53044, 6.060, -23378.10392, 6.070, -22147.67740
6.080, -20917.25088, 6.090, -19686.82435, 6.100, -18456.39783, 6.110, -17225.97131
6.120, -15995.54479, 6.130, -14765.11827, 6.140, -13534.69174, 6.150, -12304.26522
6.160, -11073.83870, 6.170, -9843.41218, 6.180, -8612.98566, 6.190, -7382.55913
6.200, -6152.13261, 6.210, -4921.70609, 6.220, -3691.27957, 6.230, -2460.85304
6.240, -1230.42652, 6.250, 0.00000, 6.260, 0.00000, 6.270, 0.00000
6.280, 0.00000, 6.290, 0.00000, 6.300, 0.00000, 6.310, 0.00000
6.320, 0.00000, 6.330, 0.00000, 6.340, 0.00000, 6.350, 0.00000
6.360, 0.00000, 6.370, 0.00000, 6.380, 0.00000, 6.390, 0.00000
6.400, 0.00000, 6.410, 0.00000, 6.420, 0.00000, 6.430, 0.00000
6.440, 0.00000, 6.450, 0.00000, 6.460, 0.00000, 6.470, 0.00000
6.480, 0.00000, 6.490, 0.00000, 6.500, 0.00000, 6.510, 0.00000
6.520, 0.00000, 6.530, 0.00000, 6.540, 0.00000, 6.550, 0.00000
6.560, 0.00000, 6.570, 0.00000, 6.580, 0.00000, 6.590, 0.00000
6.600, 0.00000, 6.610, 0.00000, 6.620, 0.00000, 6.630, 0.00000
6.640, 0.00000, 6.650, 0.00000, 6.660, 0.00000, 6.670, 0.00000
6.680, 0.00000, 6.690, 0.00000, 6.700, 0.00000, 6.710, 0.00000
6.720, 0.00000, 6.730, 0.00000, 6.740, 0.00000, 6.750, 0.00000
6.760, 0.00000, 6.770, 0.00000, 6.780, 0.00000, 6.790, 0.00000
6.800, 0.00000, 6.810, 0.00000, 6.820, 0.00000, 6.830, 0.00000
6.840, 0.00000, 6.850, 0.00000, 6.860, 0.00000, 6.870, 0.00000
6.880, 0.00000, 6.890, 0.00000, 6.900, 0.00000, 6.910, 0.00000
6.920, 0.00000, 6.930, 0.00000, 6.940, 0.00000, 6.950, 0.00000
6.960, 0.00000, 6.970, 0.00000, 6.980, 0.00000, 6.990, 0.00000
7.000, 0.00000, 7.010, 0.00000, 7.020, 0.00000, 7.030, 0.00000
7.040, 0.00000, 7.050, 0.00000, 7.060, 0.00000, 7.070, 0.00000
7.080, 0.00000, 7.090, 0.00000, 7.100, 0.00000, 7.110, 0.00000
7.120, 0.00000, 7.130, 0.00000, 7.140, 0.00000, 7.150, 0.00000
7.160, 0.00000, 7.170, 0.00000, 7.180, 0.00000, 7.190, 0.00000
7.200, 0.00000, 7.210, 0.00000, 7.220, 0.00000, 7.230, 0.00000
7.240, 0.00000, 7.250, 0.00000, 7.260, 0.00000, 7.270, 0.00000
7.280, 0.00000, 7.290, 0.00000, 7.300, 0.00000, 7.310, 0.00000
7.320, 0.00000, 7.330, 0.00000, 7.340, 0.00000, 7.350, 0.00000
7.360, 0.00000, 7.370, 0.00000, 7.380, 0.00000, 7.390, 0.00000
7.400, 0.00000, 7.410, 0.00000, 7.420, 0.00000, 7.430, 0.00000
7.440, 0.00000, 7.450, 0.00000, 7.460, 0.00000, 7.470, 0.00000
7.480, 0.00000, 7.490, 0.00000, 7.500, 0.00000, 7.510, 0.00000
7.520, 0.00000, 7.530, 0.00000, 7.540, 0.00000, 7.550, 0.00000
7.560, 0.00000, 7.570, 0.00000, 7.580, 0.00000, 7.590, 0.00000
7.600, 0.00000, 7.610, 0.00000, 7.620, 0.00000, 7.630, 0.00000
7.640, 0.00000, 7.650, 0.00000, 7.660, 0.00000, 7.670, 0.00000
7.680, 0.00000, 7.690, 0.00000, 7.700, 0.00000, 7.710, 0.00000
7.720, 0.00000, 7.730, 0.00000, 7.740, 0.00000, 7.750, 0.00000
7.760, 0.00000, 7.770, 0.00000, 7.780, 0.00000, 7.790, 0.00000
7.800, 0.00000, 7.810, 0.00000, 7.820, 0.00000, 7.830, 0.00000
7.840, 0.00000, 7.850, 0.00000, 7.860, 0.00000, 7.870, 0.00000
7.880, 0.00000, 7.890, 0.00000, 7.900, 0.00000, 7.910, 0.00000
7.920, 0.00000, 7.930, 0.00000, 7.940, 0.00000, 7.950, 0.00000
7.960, 0.00000, 7.970, 0.00000, 7.980, 0.00000, 7.990, 0.00000
8.000, 0.00000, 8.010, -4927.21801, 8.020, -9854.43603, 8.030, -14781.65404
8.040, -19708.87206, 8.050, -24636.09007, 8.060, -23404.28557, 8.070, -22172.48106
8.080, -20940.67656, 8.090, -19708.87206, 8.100, -18477.06755, 8.110, -17245.26305
8.120, -16013.45855, 8.130, -14781.65404, 8.140, -13549.84954, 8.150, -12318.04503
8.160, -11086.24053, 8.170, -9854.43603, 8.180, -8622.63152, 8.190, -7390.82702
8.200, -6159.02252, 8.210, -4927.21801, 8.220, -3695.41351, 8.230, -2463.60901
8.240, -1231.80450, 8.250, 0.00000, 8.260, 0.00000, 8.270, 0.00000
8.280, 0.00000, 8.290, 0.00000, 8.300, 0.00000, 8.310, 0.00000
8.320, 0.00000, 8.330, 0.00000, 8.340, 0.00000, 8.350, 0.00000
8.360, 0.00000, 8.370, 0.00000, 8.380, 0.00000, 8.390, 0.00000
8.400, 0.00000, 8.410, 0.00000, 8.420, 0.00000, 8.430, 0.00000
8.440, 0.00000, 8.450, 0.00000, 8.460, 0.00000, 8.470, 0.00000
8.480, 0.00000, 8.490, 0.00000, 8.500, 0.00000, 8.510, 0.00000
8.520, 0.00000, 8.530, 0.00000, 8.540, 0.00000, 8.550, 0.00000
8.560, 0.00000, 8.570, 0.00000, 8.580, 0.00000, 8.590, 0.00000
8.600, 0.00000, 8.610, 0.00000, 8.620, 0.00000, 8.630, 0.00000
8.640, 0.00000, 8.650, 0.00000, 8.660, 0.00000, 8.670, 0.00000
8.680, 0.00000, 8.690, 0.00000, 8.700, 0.00000, 8.710, 0.00000
8.720, 0.00000, 8.730, 0.00000, 8.740, 0.00000, 8.750, 0.00000
8.760, 0.00000, 8.770, 0.00000, 8.780, 0.00000, 8.790, 0.00000
8.800, 0.00000, 8.810, 0.00000, 8.820, 0.00000, 8.830, 0.00000
8.840, 0.00000, 8.850, 0.00000, 8.860, 0.00000, 8.870, 0.00000
8.880, 0.00000, 8.890, 0.00000, 8.900, 0.00000, 8.910, 0.00000
8.920, 0.00000, 8.930, 0.00000, 8.940, 0.00000, 8.950, 0.00000
8.960, 0.00000, 8.970, 0.00000, 8.980, 0.00000, 8.990, 0.00000
9.000, 0.00000, 9.010, 0.00000, 9.020, 0.00000, 9.030, 0.00000
9.040, 0.00000, 9.050, 0.00000, 9.060, 0.00000, 9.070, 0.00000
9.080, 0.00000, 9.090, 0.00000, 9.100, 0.00000, 9.110, 0.00000
9.120, 0.00000, 9.130, 0.00000, 9.140, 0.00000, 9.150, 0.00000
9.160, 0.00000, 9.170, 0.00000, 9.180, 0.00000, 9.190, 0.00000
9.200, 0.00000, 9.210, 0.00000, 9.220, 0.00000, 9.230, 0.00000
9.240, 0.00000, 9.250, 0.00000, 9.260, 0.00000, 9.270, 0.00000
9.280, 0.00000, 9.290, 0.00000, 9.300, 0.00000, 9.310, 0.00000
9.320, 0.00000, 9.330, 0.00000, 9.340, 0.00000, 9.350, 0.00000
9.360, 0.00000, 9.370, 0.00000, 9.380, 0.00000, 9.390, 0.00000
9.400, 0.00000, 9.410, 0.00000, 9.420, 0.00000, 9.430, 0.00000
9.440, 0.00000, 9.450, 0.00000, 9.460, 0.00000, 9.470, 0.00000
9.480, 0.00000, 9.490, 0.00000, 9.500, 0.00000, 9.510, 0.00000
9.520, 0.00000, 9.530, 0.00000, 9.540, 0.00000, 9.550, 0.00000
9.560, 0.00000, 9.570, 0.00000, 9.580, 0.00000, 9.590, 0.00000
9.600, 0.00000, 9.610, 0.00000, 9.620, 0.00000, 9.630, 0.00000
9.640, 0.00000, 9.650, 0.00000, 9.660, 0.00000, 9.670, 0.00000
9.680, 0.00000, 9.690, 0.00000, 9.700, 0.00000, 9.710, 0.00000
9.720, 0.00000, 9.730, 0.00000, 9.740, 0.00000, 9.750, 0.00000
9.760, 0.00000, 9.770, 0.00000, 9.780, 0.00000, 9.790, 0.00000
9.800, 0.00000, 9.810, 0.00000, 9.820, 0.00000, 9.830, 0.00000
9.840, 0.00000, 9.850, 0.00000, 9.860, 0.00000, 9.870, 0.00000
9.880, 0.00000, 9.890, 0.00000, 9.900, 0.00000, 9.910, 0.00000
9.920, 0.00000, 9.930, 0.00000, 9.940, 0.00000, 9.950, 0.00000
9.960, 0.00000, 9.970, 0.00000, 9.980, 0.00000, 9.990, 0.00000
*AMPLITUDE, NAME=ROW12
0.000, 0.00000, 0.010, -2924.62540, 0.020, -5849.25079, 0.030, -8773.87619
0.040, -11698.50158, 0.050, -14623.12698, 0.060, -13891.97063, 0.070, -13160.81428
0.080, -12429.65793, 0.090, -11698.50158, 0.100, -10967.34523, 0.110, -10236.18889
0.120, -9505.03254, 0.130, -8773.87619, 0.140, -8042.71984, 0.150, -7311.56349
0.160, -6580.40714, 0.170, -5849.25079, 0.180, -5118.09444, 0.190, -4386.93809
0.200, -3655.78174, 0.210, -2924.62540, 0.220, -2193.46905, 0.230, -1462.31270
0.240, -731.15635, 0.250, 0.00000, 0.260, 0.00000, 0.270, 0.00000
0.280, 0.00000, 0.290, 0.00000, 0.300, 0.00000, 0.310, 0.00000
0.320, 0.00000, 0.330, 0.00000, 0.340, 0.00000, 0.350, 0.00000
0.360, 0.00000, 0.370, 0.00000, 0.380, 0.00000, 0.390, 0.00000
0.400, 0.00000, 0.410, 0.00000, 0.420, 0.00000, 0.430, 0.00000
0.440, 0.00000, 0.450, 0.00000, 0.460, 0.00000, 0.470, 0.00000
0.480, 0.00000, 0.490, 0.00000, 0.500, 0.00000, 0.510, 0.00000
0.520, 0.00000, 0.530, 0.00000, 0.540, 0.00000, 0.550, 0.00000
0.560, 0.00000, 0.570, 0.00000, 0.580, 0.00000, 0.590, 0.00000
0.600, 0.00000, 0.610, 0.00000, 0.620, 0.00000, 0.630, 0.00000
0.640, 0.00000, 0.650, 0.00000, 0.660, 0.00000, 0.670, 0.00000
0.680, 0.00000, 0.690, 0.00000, 0.700, 0.00000, 0.710, 0.00000
0.720, 0.00000, 0.730, 0.00000, 0.740, 0.00000, 0.750, 0.00000
0.760, 0.00000, 0.770, 0.00000, 0.780, 0.00000, 0.790, 0.00000
0.800, 0.00000, 0.810, 0.00000, 0.820, 0.00000, 0.830, 0.00000
0.840, 0.00000, 0.850, 0.00000, 0.860, 0.00000, 0.870, 0.00000
0.880, 0.00000, 0.890, 0.00000, 0.900, 0.00000, 0.910, 0.00000
0.920, 0.00000, 0.930, 0.00000, 0.940, 0.00000, 0.950, 0.00000
0.960, 0.00000, 0.970, 0.00000, 0.980, 0.00000, 0.990, 0.00000
1.000, 0.00000, 1.010, 0.00000, 1.020, 0.00000, 1.030, 0.00000
1.040, 0.00000, 1.050, 0.00000, 1.060, 0.00000, 1.070, 0.00000
1.080, 0.00000, 1.090, 0.00000, 1.100, 0.00000, 1.110, 0.00000
1.120, 0.00000, 1.130, 0.00000, 1.140, 0.00000, 1.150, 0.00000
1.160, 0.00000, 1.170, 0.00000, 1.180, 0.00000, 1.190, 0.00000
1.200, 0.00000, 1.210, 0.00000, 1.220, 0.00000, 1.230, 0.00000
1.240, 0.00000, 1.250, 0.00000, 1.260, 0.00000, 1.270, 0.00000
1.280, 0.00000, 1.290, 0.00000, 1.300, 0.00000, 1.310, 0.00000
1.320, 0.00000, 1.330, 0.00000, 1.340, 0.00000, 1.350, 0.00000
1.360, 0.00000, 1.370, 0.00000, 1.380, 0.00000, 1.390, 0.00000
1.400, 0.00000, 1.410, 0.00000, 1.420, 0.00000, 1.430, 0.00000
1.440, 0.00000, 1.450, 0.00000, 1.460, 0.00000, 1.470, 0.00000
1.480, 0.00000, 1.490, 0.00000, 1.500, 0.00000, 1.510, 0.00000
1.520, 0.00000, 1.530, 0.00000, 1.540, 0.00000, 1.550, 0.00000
1.560, 0.00000, 1.570, 0.00000, 1.580, 0.00000, 1.590, 0.00000
1.600, 0.00000, 1.610, 0.00000, 1.620, 0.00000, 1.630, 0.00000
1.640, 0.00000, 1.650, 0.00000, 1.660, 0.00000, 1.670, 0.00000
1.680, 0.00000, 1.690, 0.00000, 1.700, 0.00000, 1.710, 0.00000
1.720, 0.00000, 1.730, 0.00000, 1.740, 0.00000, 1.750, 0.00000
1.760, 0.00000, 1.770, 0.00000, 1.780, 0.00000, 1.790, 0.00000
1.800, 0.00000, 1.810, 0.00000, 1.820, 0.00000, 1.830, 0.00000
1.840, 0.00000, 1.850, 0.00000, 1.860, 0.00000, 1.870, 0.00000
1.880, 0.00000, 1.890, 0.00000, 1.900, 0.00000, 1.910, 0.00000
1.920, 0.00000, 1.930, 0.00000, 1.940, 0.00000, 1.950, 0.00000
1.960, 0.00000, 1.970, 0.00000, 1.980, 0.00000, 1.990, 0.00000
2.000, 0.00000, 2.010, -3521.27848, 2.020, -7042.55697, 2.030, -10563.83545
2.040, -14085.11393, 2.050, -17606.39242, 2.060, -16726.07280, 2.070, -15845.75318
2.080, -14965.43355, 2.090, -14085.11393, 2.100, -13204.79431, 2.110, -12324.47469
2.120, -11444.15507, 2.130, -10563.83545, 2.140, -9683.51583, 2.150, -8803.19621
2.160, -7922.87659, 2.170, -7042.55697, 2.180, -6162.23735, 2.190, -5281.91773
2.200, -4401.59810, 2.210, -3521.27848, 2.220, -2640.95886, 2.230, -1760.63924
2.240, -880.31962, 2.250, 0.00000, 2.260, 0.00000, 2.270, 0.00000
2.280, 0.00000, 2.290, 0.00000, 2.300, 0.00000, 2.310, 0.00000
2.320, 0.00000, 2.330, 0.00000, 2.340, 0.00000, 2.350, 0.00000
2.360, 0.00000, 2.370, 0.00000, 2.380, 0.00000, 2.390, 0.00000
2.400, 0.00000, 2.410, 0.00000, 2.420, 0.00000, 2.430, 0.00000
2.440, 0.00000, 2.450, 0.00000, 2.460, 0.00000, 2.470, 0.00000
2.480, 0.00000, 2.490, 0.00000, 2.500, 0.00000, 2.510, 0.00000
2.520, 0.00000, 2.530, 0.00000, 2.540, 0.00000, 2.550, 0.00000
2.560, 0.00000, 2.570, 0.00000, 2.580, 0.00000, 2.590, 0.00000
2.600, 0.00000, 2.610, 0.00000, 2.620, 0.00000, 2.630, 0.00000
2.640, 0.00000, 2.650, 0.00000, 2.660, 0.00000, 2.670, 0.00000
2.680, 0.00000, 2.690, 0.00000, 2.700, 0.00000, 2.710, 0.00000
2.720, 0.00000, 2.730, 0.00000, 2.740, 0.00000, 2.750, 0.00000
2.760, 0.00000, 2.770, 0.00000, 2.780, 0.00000, 2.790, 0.00000
2.800, 0.00000, 2.810, 0.00000, 2.820, 0.00000, 2.830, 0.00000
2.840, 0.00000, 2.850, 0.00000, 2.860, 0.00000, 2.870, 0.00000
2.880, 0.00000, 2.890, 0.00000, 2.900, 0.00000, 2.910, 0.00000
2.920, 0.00000, 2.930, 0.00000, 2.940, 0.00000, 2.950, 0.00000
2.960, 0.00000, 2.970, 0.00000, 2.980, 0.00000, 2.990, 0.00000
3.000, 0.00000, 3.010, 0.00000, 3.020, 0.00000, 3.030, 0.00000
3.040, 0.00000, 3.050, 0.00000, 3.060, 0.00000, 3.070, 0.00000
3.080, 0.00000, 3.090, 0.00000, 3.100, 0.00000, 3.110, 0.00000
3.120, 0.00000, 3.130, 0.00000, 3.140, 0.00000, 3.150, 0.00000
3.160, 0.00000, 3.170, 0.00000, 3.180, 0.00000, 3.190, 0.00000
3.200, 0.00000, 3.210, 0.00000, 3.220, 0.00000, 3.230, 0.00000
3.240, 0.00000, 3.250, 0.00000, 3.260, 0.00000, 3.270, 0.00000
3.280, 0.00000, 3.290, 0.00000, 3.300, 0.00000, 3.310, 0.00000
3.320, 0.00000, 3.330, 0.00000, 3.340, 0.00000, 3.350, 0.00000
3.360, 0.00000, 3.370, 0.00000, 3.380, 0.00000, 3.390, 0.00000
3.400, 0.00000, 3.410, 0.00000, 3.420, 0.00000, 3.430, 0.00000
3.440, 0.00000, 3.450, 0.00000, 3.460, 0.00000, 3.470, 0.00000
3.480, 0.00000, 3.490, 0.00000, 3.500, 0.00000, 3.510, 0.00000
3.520, 0.00000, 3.530, 0.00000, 3.540, 0.00000, 3.550, 0.00000
3.560, 0.00000, 3.570, 0.00000, 3.580, 0.00000, 3.590, 0.00000
3.600, 0.00000, 3.610, 0.00000, 3.620, 0.00000, 3.630, 0.00000
3.640, 0.00000, 3.650, 0.00000, 3.660, 0.00000, 3.670, 0.00000
3.680, 0.00000, 3.690, 0.00000, 3.700, 0.00000, 3.710, 0.00000
3.720, 0.00000, 3.730, 0.00000, 3.740, 0.00000, 3.750, 0.00000
3.760, 0.00000, 3.770, 0.00000, 3.780, 0.00000, 3.790, 0.00000
3.800, 0.00000, 3.810, 0.00000, 3.820, 0.00000, 3.830, 0.00000
3.840, 0.00000, 3.850, 0.00000, 3.860, 0.00000, 3.870, 0.00000
3.880, 0.00000, 3.890, 0.00000, 3.900, 0.00000, 3.910, 0.00000
3.920, 0.00000, 3.930, 0.00000, 3.940, 0.00000, 3.950, 0.00000
3.960, 0.00000, 3.970, 0.00000, 3.980, 0.00000, 3.990, 0.00000
4.000, 0.00000, 4.010, -3889.94144, 4.020, -7779.88289, 4.030, -11669.82433
4.040, -15559.76577, 4.050, -19449.70721, 4.060, -18477.22185, 4.070, -17504.73649
4.080, -16532.25113, 4.090, -15559.76577, 4.100, -14587.28041, 4.110, -13614.79505
4.120, -12642.30969, 4.130, -11669.82433, 4.140, -10697.33897, 4.150, -9724.85361
4.160, -8752.36825, 4.170, -7779.88289, 4.180, -6807.39753, 4.190, -5834.91216
4.200, -4862.42680, 4.210, -3889.94144, 4.220, -2917.45608, 4.230, -1944.97072
4.240, -972.48536, 4.250, 0.00000, 4.260, 0.00000, 4.270, 0.00000
4.280, 0.00000, 4.290, 0.00000, 4.300, 0.00000, 4.310, 0.00000
4.320, 0.00000, 4.330, 0.00000, 4.340, 0.00000, 4.350, 0.00000
4.360, 0.00000, 4.370, 0.00000, 4.380, 0.00000, 4.390, 0.00000
4.400, 0.00000, 4.410, 0.00000, 4.420, 0.00000, 4.430, 0.00000
4.440, 0.00000, 4.450, 0.00000, 4.460, 0.00000, 4.470, 0.00000
4.480, 0.00000, 4.490, 0.00000, 4.500, 0.00000, 4.510, 0.00000
4.520, 0.00000, 4.530, 0.00000, 4.540, 0.00000, 4.550, 0.00000
4.560, 0.00000, 4.570, 0.00000, 4.580, 0.00000, 4.590, 0.00000
4.600, 0.00000, 4.610, 0.00000, 4.620, 0.00000, 4.630, 0.00000
4.640, 0.00000, 4.650, 0.00000, 4.660, 0.00000, 4.670, 0.00000
4.680, 0.00000, 4.690, 0.00000, 4.700, 0.00000, 4.710, 0.00000
4.720, 0.00000, 4.730, 0.00000, 4.740, 0.00000, 4.750, 0.00000
4.760, 0.00000, 4.770, 0.00000, 4.780, 0.00000, 4.790, 0.00000
4.800, 0.00000, 4.810, 0.00000, 4.820, 0.00000, 4.830, 0.00000
4.840, 0.00000, 4.850, 0.00000, 4.860, 0.00000, 4.870, 0.00000
4.880, 0.00000, 4.890, 0.00000, 4.900, 0.00000, 4.910, 0.00000
4.920, 0.00000, 4.930, 0.00000, 4.940, 0.00000, 4.950, 0.00000
4.960, 0.00000, 4.970, 0.00000, 4.980, 0.00000, 4.990, 0.00000
5.000, 0.00000, 5.010, 0.00000, 5.020, 0.00000, 5.030, 0.00000
5.040, 0.00000, 5.050, 0.00000, 5.060, 0.00000, 5.070, 0.00000
5.080, 0.00000, 5.090, 0.00000, 5.100, 0.00000, 5.110, 0.00000
5.120, 0.00000, 5.130, 0.00000, 5.140, 0.00000, 5.150, 0.00000
5.160, 0.00000, 5.170, 0.00000, 5.180, 0.00000, 5.190, 0.00000
5.200, 0.00000, 5.210, 0.00000, 5.220, 0.00000, 5.230, 0.00000
5.240, 0.00000, 5.250, 0.00000, 5.260, 0.00000, 5.270, 0.00000
5.280, 0.00000, 5.290, 0.00000, 5.300, 0.00000, 5.310, 0.00000
5.320, 0.00000, 5.330, 0.00000, 5.340, 0.00000, 5.350, 0.00000
5.360, 0.00000, 5.370, 0.00000, 5.380, 0.00000, 5.390, 0.00000
5.400, 0.00000, 5.410, 0.00000, 5.420, 0.00000, 5.430, 0.00000
5.440, 0.00000, 5.450, 0.00000, 5.460, 0.00000, 5.470, 0.00000
5.480, 0.00000, 5.490, 0.00000, 5.500, 0.00000, 5.510, 0.00000
5.520, 0.00000, 5.530, 0.00000, 5.540, 0.00000, 5.550, 0.00000
5.560, 0.00000, 5.570, 0.00000, 5.580, 0.00000, 5.590, 0.00000
5.600, 0.00000, 5.610, 0.00000, 5.620, 0.00000, 5.630, 0.00000
5.640, 0.00000, 5.650, 0.00000, 5.660, 0.00000, 5.670, 0.00000
5.680, 0.00000, 5.690, 0.00000, 5.700, 0.00000, 5.710, 0.00000
5.720, 0.00000, 5.730, 0.00000, 5.740, 0.00000, 5.750, 0.00000
5.760, 0.00000, 5.770, 0.00000, 5.780, 0.00000, 5.790, 0.00000
5.800, 0.00000, 5.810, 0.00000, 5.820, 0.00000, 5.830, 0.00000
5.840, 0.00000, 5.850, 0.00000, 5.860, 0.00000, 5.870, 0.00000
5.880, 0.00000, 5.890, 0.00000, 5.900, 0.00000, 5.910, 0.00000
5.920, 0.00000, 5.930, 0.00000, 5.940, 0.00000, 5.950, 0.00000
5.960, 0.00000, 5.970, 0.00000, 5.980, 0.00000, 5.990, 0.00000
6.000, 0.00000, 6.010, -4133.39396, 6.020, -8266.78792, 6.030, -12400.18188
6.040, -16533.57583, 6.050, -20666.96979, 6.060, -19633.62130, 6.070, -18600.27281
6.080, -17566.92432, 6.090, -16533.57583, 6.100, -15500.22734, 6.110, -14466.87885
6.120, -13433.53036, 6.130, -12400.18188, 6.140, -11366.83339, 6.150, -10333.48490
6.160, -9300.13641, 6.170, -8266.78792, 6.180, -7233.43943, 6.190, -6200.09094
6.200, -5166.74245, 6.210, -4133.39396, 6.220, -3100.04547, 6.230, -2066.69698
6.240, -1033.34849, 6.250, 0.00000, 6.260, 0.00000, 6.270, 0.00000
6.280, 0.00000, 6.290, 0.00000, 6.300, 0.00000, 6.310, 0.00000
6.320, 0.00000, 6.330, 0.00000, 6.340, 0.00000, 6.350, 0.00000
6.360, 0.00000, 6.370, 0.00000, 6.380, 0.00000, 6.390, 0.00000
6.400, 0.00000, 6.410, 0.00000, 6.420, 0.00000, 6.430, 0.00000
6.440, 0.00000, 6.450, 0.00000, 6.460, 0.00000, 6.470, 0.00000
6.480, 0.00000, 6.490, 0.00000, 6.500, 0.00000, 6.510, 0.00000
6.520, 0.00000, 6.530, 0.00000, 6.540, 0.00000, 6.550, 0.00000
6.560, 0.00000, 6.570, 0.00000, 6.580, 0.00000, 6.590, 0.00000
6.600, 0.00000, 6.610, 0.00000, 6.620, 0.00000, 6.630, 0.00000
6.640, 0.00000, 6.650, 0.00000, 6.660, 0.00000, 6.670, 0.00000
6.680, 0.00000, 6.690, 0.00000, 6.700, 0.00000, 6.710, 0.00000
6.720, 0.00000, 6.730, 0.00000, 6.740, 0.00000, 6.750, 0.00000
6.760, 0.00000, 6.770, 0.00000, 6.780, 0.00000, 6.790, 0.00000
6.800, 0.00000, 6.810, 0.00000, 6.820, 0.00000, 6.830, 0.00000
6.840, 0.00000, 6.850, 0.00000, 6.860, 0.00000, 6.870, 0.00000
6.880, 0.00000, 6.890, 0.00000, 6.900, 0.00000, 6.910, 0.00000
6.920, 0.00000, 6.930, 0.00000, 6.940, 0.00000, 6.950, 0.00000
6.960, 0.00000, 6.970, 0.00000, 6.980, 0.00000, 6.990, 0.00000
7.000, 0.00000, 7.010, 0.00000, 7.020, 0.00000, 7.030, 0.00000
7.040, 0.00000, 7.050, 0.00000, 7.060, 0.00000, 7.070, 0.00000
7.080, 0.00000, 7.090, 0.00000, 7.100, 0.00000, 7.110, 0.00000
7.120, 0.00000, 7.130, 0.00000, 7.140, 0.00000, 7.150, 0.00000
7.160, 0.00000, 7.170, 0.00000, 7.180, 0.00000, 7.190, 0.00000
7.200, 0.00000, 7.210, 0.00000, 7.220, 0.00000, 7.230, 0.00000
7.240, 0.00000, 7.250, 0.00000, 7.260, 0.00000, 7.270, 0.00000
7.280, 0.00000, 7.290, 0.00000, 7.300, 0.00000, 7.310, 0.00000
7.320, 0.00000, 7.330, 0.00000, 7.340, 0.00000, 7.350, 0.00000
7.360, 0.00000, 7.370, 0.00000, 7.380, 0.00000, 7.390, 0.00000
7.400, 0.00000, 7.410, 0.00000, 7.420, 0.00000, 7.430, 0.00000
7.440, 0.00000, 7.450, 0.00000, 7.460, 0.00000, 7.470, 0.00000
7.480, 0.00000, 7.490, 0.00000, 7.500, 0.00000, 7.510, 0.00000
7.520, 0.00000, 7.530, 0.00000, 7.540, 0.00000, 7.550, 0.00000
7.560, 0.00000, 7.570, 0.00000, 7.580, 0.00000, 7.590, 0.00000
7.600, 0.00000, 7.610, 0.00000, 7.620, 0.00000, 7.630, 0.00000
7.640, 0.00000, 7.650, 0.00000, 7.660, 0.00000, 7.670, 0.00000
7.680, 0.00000, 7.690, 0.00000, 7.700, 0.00000, 7.710, 0.00000
7.720, 0.00000, 7.730, 0.00000, 7.740, 0.00000, 7.750, 0.00000
7.760, 0.00000, 7.770, 0.00000, 7.780, 0.00000, 7.790, 0.00000
7.800, 0.00000, 7.810, 0.00000, 7.820, 0.00000, 7.830, 0.00000
7.840, 0.00000, 7.850, 0.00000, 7.860, 0.00000, 7.870, 0.00000
7.880, 0.00000, 7.890, 0.00000, 7.900, 0.00000, 7.910, 0.00000
7.920, 0.00000, 7.930, 0.00000, 7.940, 0.00000, 7.950, 0.00000
7.960, 0.00000, 7.970, 0.00000, 7.980, 0.00000, 7.990, 0.00000
8.000, 0.00000, 8.010, -4311.24612, 8.020, -8622.49223, 8.030, -12933.73835
8.040, -17244.98447, 8.050, -21556.23059, 8.060, -20478.41906, 8.070, -19400.60753
8.080, -18322.79600, 8.090, -17244.98447, 8.100, -16167.17294, 8.110, -15089.36141
8.120, -14011.54988, 8.130, -12933.73835, 8.140, -11855.92682, 8.150, -10778.11529
8.160, -9700.30376, 8.170, -8622.49223, 8.180, -7544.68070, 8.190, -6466.86918
8.200, -5389.05765, 8.210, -4311.24612, 8.220, -3233.43459, 8.230, -2155.62306
8.240, -1077.81153, 8.250, 0.00000, 8.260, 0.00000, 8.270, 0.00000
8.280, 0.00000, 8.290, 0.00000, 8.300, 0.00000, 8.310, 0.00000
8.320, 0.00000, 8.330, 0.00000, 8.340, 0.00000, 8.350, 0.00000
8.360, 0.00000, 8.370, 0.00000, 8.380, 0.00000, 8.390, 0.00000
8.400, 0.00000, 8.410, 0.00000, 8.420, 0.00000, 8.430, 0.00000
8.440, 0.00000, 8.450, 0.00000, 8.460, 0.00000, 8.470, 0.00000
8.480, 0.00000, 8.490, 0.00000, 8.500, 0.00000, 8.510, 0.00000
8.520, 0.00000, 8.530, 0.00000, 8.540, 0.00000, 8.550, 0.00000
8.560, 0.00000, 8.570, 0.00000, 8.580, 0.00000, 8.590, 0.00000
8.600, 0.00000, 8.610, 0.00000, 8.620, 0.00000, 8.630, 0.00000
8.640, 0.00000, 8.650, 0.00000, 8.660, 0.00000, 8.670, 0.00000
8.680, 0.00000, 8.690, 0.00000, 8.700, 0.00000, 8.710, 0.00000
8.720, 0.00000, 8.730, 0.00000, 8.740, 0.00000, 8.750, 0.00000
8.760, 0.00000, 8.770, 0.00000, 8.780, 0.00000, 8.790, 0.00000
8.800, 0.00000, 8.810, 0.00000, 8.820, 0.00000, 8.830, 0.00000
8.840, 0.00000, 8.850, 0.00000, 8.860, 0.00000, 8.870, 0.00000
8.880, 0.00000, 8.890, 0.00000, 8.900, 0.00000, 8.910, 0.00000
8.920, 0.00000, 8.930, 0.00000, 8.940, 0.00000, 8.950, 0.00000
8.960, 0.00000, 8.970, 0.00000, 8.980, 0.00000, 8.990, 0.00000
9.000, 0.00000, 9.010, 0.00000, 9.020, 0.00000, 9.030, 0.00000
9.040, 0.00000, 9.050, 0.00000, 9.060, 0.00000, 9.070, 0.00000
9.080, 0.00000, 9.090, 0.00000, 9.100, 0.00000, 9.110, 0.00000
9.120, 0.00000, 9.130, 0.00000, 9.140, 0.00000, 9.150, 0.00000
9.160, 0.00000, 9.170, 0.00000, 9.180, 0.00000, 9.190, 0.00000
9.200, 0.00000, 9.210, 0.00000, 9.220, 0.00000, 9.230, 0.00000
9.240, 0.00000, 9.250, 0.00000, 9.260, 0.00000, 9.270, 0.00000
9.280, 0.00000, 9.290, 0.00000, 9.300, 0.00000, 9.310, 0.00000
9.320, 0.00000, 9.330, 0.00000, 9.340, 0.00000, 9.350, 0.00000
9.360, 0.00000, 9.370, 0.00000, 9.380, 0.00000, 9.390, 0.00000
9.400, 0.00000, 9.410, 0.00000, 9.420, 0.00000, 9.430, 0.00000
9.440, 0.00000, 9.450, 0.00000, 9.460, 0.00000, 9.470, 0.00000
9.480, 0.00000, 9.490, 0.00000, 9.500, 0.00000, 9.510, 0.00000
9.520, 0.00000, 9.530, 0.00000, 9.540, 0.00000, 9.550, 0.00000
9.560, 0.00000, 9.570, 0.00000, 9.580, 0.00000, 9.590, 0.00000
9.600, 0.00000, 9.610, 0.00000, 9.620, 0.00000, 9.630, 0.00000
9.640, 0.00000, 9.650, 0.00000, 9.660, 0.00000, 9.670, 0.00000
9.680, 0.00000, 9.690, 0.00000, 9.700, 0.00000, 9.710, 0.00000
9.720, 0.00000, 9.730, 0.00000, 9.740, 0.00000, 9.750, 0.00000
9.760, 0.00000, 9.770, 0.00000, 9.780, 0.00000, 9.790, 0.00000
9.800, 0.00000, 9.810, 0.00000, 9.820, 0.00000, 9.830, 0.00000
9.840, 0.00000, 9.850, 0.00000, 9.860, 0.00000, 9.870, 0.00000
9.880, 0.00000, 9.890, 0.00000, 9.900, 0.00000, 9.910, 0.00000
9.920, 0.00000, 9.930, 0.00000, 9.940, 0.00000, 9.950, 0.00000
9.960, 0.00000, 9.970, 0.00000, 9.980, 0.00000, 9.990, 0.00000
*AMPLITUDE, NAME=ROW13
0.000, 0.00000, 0.010, 614.98405, 0.020, 1229.96810, 0.030, 1844.95215
0.040, 2459.93620, 0.050, 3074.92025, 0.060, 2921.17424, 0.070, 2767.42823
0.080, 2613.68221, 0.090, 2459.93620, 0.100, 2306.19019, 0.110, 2152.44418
0.120, 1998.69816, 0.130, 1844.95215, 0.140, 1691.20614, 0.150, 1537.46013
0.160, 1383.71411, 0.170, 1229.96810, 0.180, 1076.22209, 0.190, 922.47608
0.200, 768.73006, 0.210, 614.98405, 0.220, 461.23804, 0.230, 307.49203
0.240, 153.74601, 0.250, 0.00000, 0.260, 0.00000, 0.270, 0.00000
0.280, 0.00000, 0.290, 0.00000, 0.300, 0.00000, 0.310, 0.00000
0.320, 0.00000, 0.330, 0.00000, 0.340, 0.00000, 0.350, 0.00000
0.360, 0.00000, 0.370, 0.00000, 0.380, 0.00000, 0.390, 0.00000
0.400, 0.00000, 0.410, 0.00000, 0.420, 0.00000, 0.430, 0.00000
0.440, 0.00000, 0.450, 0.00000, 0.460, 0.00000, 0.470, 0.00000
0.480, 0.00000, 0.490, 0.00000, 0.500, 0.00000, 0.510, 0.00000
0.520, 0.00000, 0.530, 0.00000, 0.540, 0.00000, 0.550, 0.00000
0.560, 0.00000, 0.570, 0.00000, 0.580, 0.00000, 0.590, 0.00000
0.600, 0.00000, 0.610, 0.00000, 0.620, 0.00000, 0.630, 0.00000
0.640, 0.00000, 0.650, 0.00000, 0.660, 0.00000, 0.670, 0.00000
0.680, 0.00000, 0.690, 0.00000, 0.700, 0.00000, 0.710, 0.00000
0.720, 0.00000, 0.730, 0.00000, 0.740, 0.00000, 0.750, 0.00000
0.760, 0.00000, 0.770, 0.00000, 0.780, 0.00000, 0.790, 0.00000
0.800, 0.00000, 0.810, 0.00000, 0.820, 0.00000, 0.830, 0.00000
0.840, 0.00000, 0.850, 0.00000, 0.860, 0.00000, 0.870, 0.00000
0.880, 0.00000, 0.890, 0.00000, 0.900, 0.00000, 0.910, 0.00000
0.920, 0.00000, 0.930, 0.00000, 0.940, 0.00000, 0.950, 0.00000
0.960, 0.00000, 0.970, 0.00000, 0.980, 0.00000, 0.990, 0.00000
1.000, 0.00000, 1.010, 0.00000, 1.020, 0.00000, 1.030, 0.00000
1.040, 0.00000, 1.050, 0.00000, 1.060, 0.00000, 1.070, 0.00000
1.080, 0.00000, 1.090, 0.00000, 1.100, 0.00000, 1.110, 0.00000
1.120, 0.00000, 1.130, 0.00000, 1.140, 0.00000, 1.150, 0.00000
1.160, 0.00000, 1.170, 0.00000, 1.180, 0.00000, 1.190, 0.00000
1.200, 0.00000, 1.210, 0.00000, 1.220, 0.00000, 1.230, 0.00000
1.240, 0.00000, 1.250, 0.00000, 1.260, 0.00000, 1.270, 0.00000
1.280, 0.00000, 1.290, 0.00000, 1.300, 0.00000, 1.310, 0.00000
1.320, 0.00000, 1.330, 0.00000, 1.340, 0.00000, 1.350, 0.00000
1.360, 0.00000, 1.370, 0.00000, 1.380, 0.00000, 1.390, 0.00000
1.400, 0.00000, 1.410, 0.00000, 1.420, 0.00000, 1.430, 0.00000
1.440, 0.00000, 1.450, 0.00000, 1.460, 0.00000, 1.470, 0.00000
1.480, 0.00000, 1.490, 0.00000, 1.500, 0.00000, 1.510, 0.00000
1.520, 0.00000, 1.530, 0.00000, 1.540, 0.00000, 1.550, 0.00000
1.560, 0.00000, 1.570, 0.00000, 1.580, 0.00000, 1.590, 0.00000
1.600, 0.00000, 1.610, 0.00000, 1.620, 0.00000, 1.630, 0.00000
1.640, 0.00000, 1.650, 0.00000, 1.660, 0.00000, 1.670, 0.00000
1.680, 0.00000, 1.690, 0.00000, 1.700, 0.00000, 1.710, 0.00000
1.720, 0.00000, 1.730, 0.00000, 1.740, 0.00000, 1.750, 0.00000
1.760, 0.00000, 1.770, 0.00000, 1.780, 0.00000, 1.790, 0.00000
1.800, 0.00000, 1.810, 0.00000, 1.820, 0.00000, 1.830, 0.00000
1.840, 0.00000, 1.850, 0.00000, 1.860, 0.00000, 1.870, 0.00000
1.880, 0.00000, 1.890, 0.00000, 1.900, 0.00000, 1.910, 0.00000
1.920, 0.00000, 1.930, 0.00000, 1.940, 0.00000, 1.950, 0.00000
1.960, 0.00000, 1.970, 0.00000, 1.980, 0.00000, 1.990, 0.00000
2.000, 0.00000, 2.010, 385.70256, 2.020, 771.40511, 2.030, 1157.10767
2.040, 1542.81023, 2.050, 1928.51279, 2.060, 1832.08715, 2.070, 1735.66151
2.080, 1639.23587, 2.090, 1542.81023, 2.100, 1446.38459, 2.110, 1349.95895
2.120, 1253.53331, 2.130, 1157.10767, 2.140, 1060.68203, 2.150, 964.25639
2.160, 867.83075, 2.170, 771.40511, 2.180, 674.97947, 2.190, 578.55384
2.200, 482.12820, 2.210, 385.70256, 2.220, 289.27692, 2.230, 192.85128
2.240, 96.42564, 2.250, 0.00000, 2.260, 0.00000, 2.270, 0.00000
2.280, 0.00000, 2.290, 0.00000, 2.300, 0.00000, 2.310, 0.00000
2.320, 0.00000, 2.330, 0.00000, 2.340, 0.00000, 2.350, 0.00000
2.360, 0.00000, 2.370, 0.00000, 2.380, 0.00000, 2.390, 0.00000
2.400, 0.00000, 2.410, 0.00000, 2.420, 0.00000, 2.430, 0.00000
2.440, 0.00000, 2.450, 0.00000, 2.460, 0.00000, 2.470, 0.00000
2.480, 0.00000, 2.490, 0.00000, 2.500, 0.00000, 2.510, 0.00000
2.520, 0.00000, 2.530, 0.00000, 2.540, 0.00000, 2.550, 0.00000
2.560, 0.00000, 2.570, 0.00000, 2.580, 0.00000, 2.590, 0.00000
2.600, 0.00000, 2.610, 0.00000, 2.620, 0.00000, 2.630, 0.00000
2.640, 0.00000, 2.650, 0.00000, 2.660, 0.00000, 2.670, 0.00000
2.680, 0.00000, 2.690, 0.00000, 2.700, 0.00000, 2.710, 0.00000
2.720, 0.00000, 2.730, 0.00000, 2.740, 0.00000, 2.750, 0.00000
2.760, 0.00000, 2.770, 0.00000, 2.780, 0.00000, 2.790, 0.00000
2.800, 0.00000, 2.810, 0.00000, 2.820, 0.00000, 2.830, 0.00000
2.840, 0.00000, 2.850, 0.00000, 2.860, 0.00000, 2.870, 0.00000
2.880, 0.00000, 2.890, 0.00000, 2.900, 0.00000, 2.910, 0.00000
2.920, 0.00000, 2.930, 0.00000, 2.940, 0.00000, 2.950, 0.00000
2.960, 0.00000, 2.970, 0.00000, 2.980, 0.00000, 2.990, 0.00000
3.000, 0.00000, 3.010, 0.00000, 3.020, 0.00000, 3.030, 0.00000
3.040, 0.00000, 3.050, 0.00000, 3.060, 0.00000, 3.070, 0.00000
3.080, 0.00000, 3.090, 0.00000, 3.100, 0.00000, 3.110, 0.00000
3.120, 0.00000, 3.130, 0.00000, 3.140, 0.00000, 3.150, 0.00000
3.160, 0.00000, 3.170, 0.00000, 3.180, 0.00000, 3.190, 0.00000
3.200, 0.00000, 3.210, 0.00000, 3.220, 0.00000, 3.230, 0.00000
3.240, 0.00000, 3.250, 0.00000, 3.260, 0.00000, 3.270, 0.00000
3.280, 0.00000, 3.290, 0.00000, 3.300, 0.00000, 3.310, 0.00000
3.320, 0.00000, 3.330, 0.00000, 3.340, 0.00000, 3.350, 0.00000
3.360, 0.00000, 3.370, 0.00000, 3.380, 0.00000, 3.390, 0.00000
3.400, 0.00000, 3.410, 0.00000, 3.420, 0.00000, 3.430, 0.00000
3.440, 0.00000, 3.450, 0.00000, 3.460, 0.00000, 3.470, 0.00000
3.480, 0.00000, 3.490, 0.00000, 3.500, 0.00000, 3.510, 0.00000
3.520, 0.00000, 3.530, 0.00000, 3.540, 0.00000, 3.550, 0.00000
3.560, 0.00000, 3.570, 0.00000, 3.580, 0.00000, 3.590, 0.00000
3.600, 0.00000, 3.610, 0.00000, 3.620, 0.00000, 3.630, 0.00000
3.640, 0.00000, 3.650, 0.00000, 3.660, 0.00000, 3.670, 0.00000
3.680, 0.00000, 3.690, 0.00000, 3.700, 0.00000, 3.710, 0.00000
3.720, 0.00000, 3.730, 0.00000, 3.740, 0.00000, 3.750, 0.00000
3.760, 0.00000, 3.770, 0.00000, 3.780, 0.00000, 3.790, 0.00000
3.800, 0.00000, 3.810, 0.00000, 3.820, 0.00000, 3.830, 0.00000
3.840, 0.00000, 3.850, 0.00000, 3.860, 0.00000, 3.870, 0.00000
3.880, 0.00000, 3.890, 0.00000, 3.900, 0.00000, 3.910, 0.00000
3.920, 0.00000, 3.930, 0.00000, 3.940, 0.00000, 3.950, 0.00000
3.960, 0.00000, 3.970, 0.00000, 3.980, 0.00000, 3.990, 0.00000
4.000, 0.00000, 4.010, 231.81197, 4.020, 463.62394, 4.030, 695.43591
4.040, 927.24788, 4.050, 1159.05985, 4.060, 1101.10686, 4.070, 1043.15387
4.080, 985.20088, 4.090, 927.24788, 4.100, 869.29489, 4.110, 811.34190
4.120, 753.38890, 4.130, 695.43591, 4.140, 637.48292, 4.150, 579.52993
4.160, 521.57693, 4.170, 463.62394, 4.180, 405.67095, 4.190, 347.71796
4.200, 289.76496, 4.210, 231.81197, 4.220, 173.85898, 4.230, 115.90599
4.240, 57.95299, 4.250, 0.00000, 4.260, 0.00000, 4.270, 0.00000
4.280, 0.00000, 4.290, 0.00000, 4.300, 0.00000, 4.310, 0.00000
4.320, 0.00000, 4.330, 0.00000, 4.340, 0.00000, 4.350, 0.00000
4.360, 0.00000, 4.370, 0.00000, 4.380, 0.00000, 4.390, 0.00000
4.400, 0.00000, 4.410, 0.00000, 4.420, 0.00000, 4.430, 0.00000
4.440, 0.00000, 4.450, 0.00000, 4.460, 0.00000, 4.470, 0.00000
4.480, 0.00000, 4.490, 0.00000, 4.500, 0.00000, 4.510, 0.00000
4.520, 0.00000, 4.530, 0.00000, 4.540, 0.00000, 4.550, 0.00000
4.560, 0.00000, 4.570, 0.00000, 4.580, 0.00000, 4.590, 0.00000
4.600, 0.00000, 4.610, 0.00000, 4.620, 0.00000, 4.630, 0.00000
4.640, 0.00000, 4.650, 0.00000, 4.660, 0.00000, 4.670, 0.00000
4.680, 0.00000, 4.690, 0.00000, 4.700, 0.00000, 4.710, 0.00000
4.720, 0.00000, 4.730, 0.00000, 4.740, 0.00000, 4.750, 0.00000
4.760, 0.00000, 4.770, 0.00000, 4.780, 0.00000, 4.790, 0.00000
4.800, 0.00000, 4.810, 0.00000, 4.820, 0.00000, 4.830, 0.00000
4.840, 0.00000, 4.850, 0.00000, 4.860, 0.00000, 4.870, 0.00000
4.880, 0.00000, 4.890, 0.00000, 4.900, 0.00000, 4.910, 0.00000
4.920, 0.00000, 4.930, 0.00000, 4.940, 0.00000, 4.950, 0.00000
4.960, 0.00000, 4.970, 0.00000, 4.980, 0.00000, 4.990, 0.00000
5.000, 0.00000, 5.010, 0.00000, 5.020, 0.00000, 5.030, 0.00000
5.040, 0.00000, 5.050, 0.00000, 5.060, 0.00000, 5.070, 0.00000
5.080, 0.00000, 5.090, 0.00000, 5.100, 0.00000, 5.110, 0.00000
5.120, 0.00000, 5.130, 0.00000, 5.140, 0.00000, 5.150, 0.00000
5.160, 0.00000, 5.170, 0.00000, 5.180, 0.00000, 5.190, 0.00000
5.200, 0.00000, 5.210, 0.00000, 5.220, 0.00000, 5.230, 0.00000
5.240, 0.00000, 5.250, 0.00000, 5.260, 0.00000, 5.270, 0.00000
5.280, 0.00000, 5.290, 0.00000, 5.300, 0.00000, 5.310, 0.00000
5.320, 0.00000, 5.330, 0.00000, 5.340, 0.00000, 5.350, 0.00000
5.360, 0.00000, 5.370, 0.00000, 5.380, 0.00000, 5.390, 0.00000
5.400, 0.00000, 5.410, 0.00000, 5.420, 0.00000, 5.430, 0.00000
5.440, 0.00000, 5.450, 0.00000, 5.460, 0.00000, 5.470, 0.00000
5.480, 0.00000, 5.490, 0.00000, 5.500, 0.00000, 5.510, 0.00000
5.520, 0.00000, 5.530, 0.00000, 5.540, 0.00000, 5.550, 0.00000
5.560, 0.00000, 5.570, 0.00000, 5.580, 0.00000, 5.590, 0.00000
5.600, 0.00000, 5.610, 0.00000, 5.620, 0.00000, 5.630, 0.00000
5.640, 0.00000, 5.650, 0.00000, 5.660, 0.00000, 5.670, 0.00000
5.680, 0.00000, 5.690, 0.00000, 5.700, 0.00000, 5.710, 0.00000
5.720, 0.00000, 5.730, 0.00000, 5.740, 0.00000, 5.750, 0.00000
5.760, 0.00000, 5.770, 0.00000, 5.780, 0.00000, 5.790, 0.00000
5.800, 0.00000, 5.810, 0.00000, 5.820, 0.00000, 5.830, 0.00000
5.840, 0.00000, 5.850, 0.00000, 5.860, 0.00000, 5.870, 0.00000
5.880, 0.00000, 5.890, 0.00000, 5.900, 0.00000, 5.910, 0.00000
5.920, 0.00000, 5.930, 0.00000, 5.940, 0.00000, 5.950, 0.00000
5.960, 0.00000, 5.970, 0.00000, 5.980, 0.00000, 5.990, 0.00000
6.000, 0.00000, 6.010, 112.77941, 6.020, 225.55881, 6.030, 338.33822
6.040, 451.11763, 6.050, 563.89703, 6.060, 535.70218, 6.070, 507.50733
6.080, 479.31248, 6.090, 451.11763, 6.100, 422.92277, 6.110, 394.72792
6.120, 366.53307, 6.130, 338.33822, 6.140, 310.14337, 6.150, 281.94852
6.160, 253.75366, 6.170, 225.55881, 6.180, 197.36396, 6.190, 169.16911
6.200, 140.97426, 6.210, 112.77941, 6.220, 84.58455, 6.230, 56.38970
6.240, 28.19485, 6.250, 0.00000, 6.260, 0.00000, 6.270, 0.00000
6.280, 0.00000, 6.290, 0.00000, 6.300, 0.00000, 6.310, 0.00000
6.320, 0.00000, 6.330, 0.00000, 6.340, 0.00000, 6.350, 0.00000
6.360, 0.00000, 6.370, 0.00000, 6.380, 0.00000, 6.390, 0.00000
6.400, 0.00000, 6.410, 0.00000, 6.420, 0.00000, 6.430, 0.00000
6.440, 0.00000, 6.450, 0.00000, 6.460, 0.00000, 6.470, 0.00000
6.480, 0.00000, 6.490, 0.00000, 6.500, 0.00000, 6.510, 0.00000
6.520, 0.00000, 6.530, 0.00000, 6.540, 0.00000, 6.550, 0.00000
6.560, 0.00000, 6.570, 0.00000, 6.580, 0.00000, 6.590, 0.00000
6.600, 0.00000, 6.610, 0.00000, 6.620, 0.00000, 6.630, 0.00000
6.640, 0.00000, 6.650, 0.00000, 6.660, 0.00000, 6.670, 0.00000
6.680, 0.00000, 6.690, 0.00000, 6.700, 0.00000, 6.710, 0.00000
6.720, 0.00000, 6.730, 0.00000, 6.740, 0.00000, 6.750, 0.00000
6.760, 0.00000, 6.770, 0.00000, 6.780, 0.00000, 6.790, 0.00000
6.800, 0.00000, 6.810, 0.00000, 6.820, 0.00000, 6.830, 0.00000
6.840, 0.00000, 6.850, 0.00000, 6.860, 0.00000, 6.870, 0.00000
6.880, 0.00000, 6.890, 0.00000, 6.900, 0.00000, 6.910, 0.00000
6.920, 0.00000, 6.930, 0.00000, 6.940, 0.00000, 6.950, 0.00000
6.960, 0.00000, 6.970, 0.00000, 6.980, 0.00000, 6.990, 0.00000
7.000, 0.00000, 7.010, 0.00000, 7.020, 0.00000, 7.030, 0.00000
7.040, 0.00000, 7.050, 0.00000, 7.060, 0.00000, 7.070, 0.00000
7.080, 0.00000, 7.090, 0.00000, 7.100, 0.00000, 7.110, 0.00000
7.120, 0.00000, 7.130, 0.00000, 7.140, 0.00000, 7.150, 0.00000
7.160, 0.00000, 7.170, 0.00000, 7.180, 0.00000, 7.190, 0.00000
7.200, 0.00000, 7.210, 0.00000, 7.220, 0.00000, 7.230, 0.00000
7.240, 0.00000, 7.250, 0.00000, 7.260, 0.00000, 7.270, 0.00000
7.280, 0.00000, 7.290, 0.00000, 7.300, 0.00000, 7.310, 0.00000
7.320, 0.00000, 7.330, 0.00000, 7.340, 0.00000, 7.350, 0.00000
7.360, 0.00000, 7.370, 0.00000, 7.380, 0.00000, 7.390, 0.00000
7.400, 0.00000, 7.410, 0.00000, 7.420, 0.00000, 7.430, 0.00000
7.440, 0.00000, 7.450, 0.00000, 7.460, 0.00000, 7.470, 0.00000
7.480, 0.00000, 7.490, 0.00000, 7.500, 0.00000, 7.510, 0.00000
7.520, 0.00000, 7.530, 0.00000, 7.540, 0.00000, 7.550, 0.00000
7.560, 0.00000, 7.570, 0.00000, 7.580, 0.00000, 7.590, 0.00000
7.600, 0.00000, 7.610, 0.00000, 7.620, 0.00000, 7.630, 0.00000
7.640, 0.00000, 7.650, 0.00000, 7.660, 0.00000, 7.670, 0.00000
7.680, 0.00000, 7.690, 0.00000, 7.700, 0.00000, 7.710, 0.00000
7.720, 0.00000, 7.730, 0.00000, 7.740, 0.00000, 7.750, 0.00000
7.760, 0.00000, 7.770, 0.00000, 7.780, 0.00000, 7.790, 0.00000
7.800, 0.00000, 7.810, 0.00000, 7.820, 0.00000, 7.830, 0.00000
7.840, 0.00000, 7.850, 0.00000, 7.860, 0.00000, 7.870, 0.00000
7.880, 0.00000, 7.890, 0.00000, 7.900, 0.00000, 7.910, 0.00000
7.920, 0.00000, 7.930, 0.00000, 7.940, 0.00000, 7.950, 0.00000
7.960, 0.00000, 7.970, 0.00000, 7.980, 0.00000, 7.990, 0.00000
8.000, 0.00000, 8.010, 14.38777, 8.020, 28.77555, 8.030, 43.16332
8.040, 57.55109, 8.050, 71.93886, 8.060, 68.34192, 8.070, 64.74498
8.080, 61.14803, 8.090, 57.55109, 8.100, 53.95415, 8.110, 50.35721
8.120, 46.76026, 8.130, 43.16332, 8.140, 39.56638, 8.150, 35.96943
8.160, 32.37249, 8.170, 28.77555, 8.180, 25.17860, 8.190, 21.58166
8.200, 17.98472, 8.210, 14.38777, 8.220, 10.79083, 8.230, 7.19389
8.240, 3.59694, 8.250, 0.00000, 8.260, 0.00000, 8.270, 0.00000
8.280, 0.00000, 8.290, 0.00000, 8.300, 0.00000, 8.310, 0.00000
8.320, 0.00000, 8.330, 0.00000, 8.340, 0.00000, 8.350, 0.00000
8.360, 0.00000, 8.370, 0.00000, 8.380, 0.00000, 8.390, 0.00000
8.400, 0.00000, 8.410, 0.00000, 8.420, 0.00000, 8.430, 0.00000
8.440, 0.00000, 8.450, 0.00000, 8.460, 0.00000, 8.470, 0.00000
8.480, 0.00000, 8.490, 0.00000, 8.500, 0.00000, 8.510, 0.00000
8.520, 0.00000, 8.530, 0.00000, 8.540, 0.00000, 8.550, 0.00000
8.560, 0.00000, 8.570, 0.00000, 8.580, 0.00000, 8.590, 0.00000
8.600, 0.00000, 8.610, 0.00000, 8.620, 0.00000, 8.630, 0.00000
8.640, 0.00000, 8.650, 0.00000, 8.660, 0.00000, 8.670, 0.00000
8.680, 0.00000, 8.690, 0.00000, 8.700, 0.00000, 8.710, 0.00000
8.720, 0.00000, 8.730, 0.00000, 8.740, 0.00000, 8.750, 0.00000
8.760, 0.00000, 8.770, 0.00000, 8.780, 0.00000, 8.790, 0.00000
8.800, 0.00000, 8.810, 0.00000, 8.820, 0.00000, 8.830, 0.00000
8.840, 0.00000, 8.850, 0.00000, 8.860, 0.00000, 8.870, 0.00000
8.880, 0.00000, 8.890, 0.00000, 8.900, 0.00000, 8.910, 0.00000
8.920, 0.00000, 8.930, 0.00000, 8.940, 0.00000, 8.950, 0.00000
8.960, 0.00000, 8.970, 0.00000, 8.980, 0.00000, 8.990, 0.00000
9.000, 0.00000, 9.010, 0.00000, 9.020, 0.00000, 9.030, 0.00000
9.040, 0.00000, 9.050, 0.00000, 9.060, 0.00000, 9.070, 0.00000
9.080, 0.00000, 9.090, 0.00000, 9.100, 0.00000, 9.110, 0.00000
9.120, 0.00000, 9.130, 0.00000, 9.140, 0.00000, 9.150, 0.00000
9.160, 0.00000, 9.170, 0.00000, 9.180, 0.00000, 9.190, 0.00000
9.200, 0.00000, 9.210, 0.00000, 9.220, 0.00000, 9.230, 0.00000
9.240, 0.00000, 9.250, 0.00000, 9.260, 0.00000, 9.270, 0.00000
9.280, 0.00000, 9.290, 0.00000, 9.300, 0.00000, 9.310, 0.00000
9.320, 0.00000, 9.330, 0.00000, 9.340, 0.00000, 9.350, 0.00000
9.360, 0.00000, 9.370, 0.00000, 9.380, 0.00000, 9.390, 0.00000
9.400, 0.00000, 9.410, 0.00000, 9.420, 0.00000, 9.430, 0.00000
9.440, 0.00000, 9.450, 0.00000, 9.460, 0.00000, 9.470, 0.00000
9.480, 0.00000, 9.490, 0.00000, 9.500, 0.00000, 9.510, 0.00000
9.520, 0.00000, 9.530, 0.00000, 9.540, 0.00000, 9.550, 0.00000
9.560, 0.00000, 9.570, 0.00000, 9.580, 0.00000, 9.590, 0.00000
9.600, 0.00000, 9.610, 0.00000, 9.620, 0.00000, 9.630, 0.00000
9.640, 0.00000, 9.650, 0.00000, 9.660, 0.00000, 9.670, 0.00000
9.680, 0.00000, 9.690, 0.00000, 9.700, 0.00000, 9.710, 0.00000
9.720, 0.00000, 9.730, 0.00000, 9.740, 0.00000, 9.750, 0.00000
9.760, 0.00000, 9.770, 0.00000, 9.780, 0.00000, 9.790, 0.00000
9.800, 0.00000, 9.810, 0.00000, 9.820, 0.00000, 9.830, 0.00000
9.840, 0.00000, 9.850, 0.00000, 9.860, 0.00000, 9.870, 0.00000
9.880, 0.00000, 9.890, 0.00000, 9.900, 0.00000, 9.910, 0.00000
9.920, 0.00000, 9.930, 0.00000, 9.940, 0.00000, 9.950, 0.00000
9.960, 0.00000, 9.970, 0.00000, 9.980, 0.00000, 9.990, 0.00000
*AMPLITUDE, NAME=ROW14
0.000, 0.00000, 0.010, 3875.36403, 0.020, 7750.72805, 0.030, 11626.09208
0.040, 15501.45611, 0.050, 19376.82013, 0.060, 18407.97913, 0.070, 17439.13812
0.080, 16470.29711, 0.090, 15501.45611, 0.100, 14532.61510, 0.110, 13563.77409
0.120, 12594.93309, 0.130, 11626.09208, 0.140, 10657.25107, 0.150, 9688.41007
0.160, 8719.56906, 0.170, 7750.72805, 0.180, 6781.88705, 0.190, 5813.04604
0.200, 4844.20503, 0.210, 3875.36403, 0.220, 2906.52302, 0.230, 1937.68201
0.240, 968.84101, 0.250, 0.00000, 0.260, 0.00000, 0.270, 0.00000
0.280, 0.00000, 0.290, 0.00000, 0.300, 0.00000, 0.310, 0.00000
0.320, 0.00000, 0.330, 0.00000, 0.340, 0.00000, 0.350, 0.00000
0.360, 0.00000, 0.370, 0.00000, 0.380, 0.00000, 0.390, 0.00000
0.400, 0.00000, 0.410, 0.00000, 0.420, 0.00000, 0.430, 0.00000
0.440, 0.00000, 0.450, 0.00000, 0.460, 0.00000, 0.470, 0.00000
0.480, 0.00000, 0.490, 0.00000, 0.500, 0.00000, 0.510, 0.00000
0.520, 0.00000, 0.530, 0.00000, 0.540, 0.00000, 0.550, 0.00000
0.560, 0.00000, 0.570, 0.00000, 0.580, 0.00000, 0.590, 0.00000
0.600, 0.00000, 0.610, 0.00000, 0.620, 0.00000, 0.630, 0.00000
0.640, 0.00000, 0.650, 0.00000, 0.660, 0.00000, 0.670, 0.00000
0.680, 0.00000, 0.690, 0.00000, 0.700, 0.00000, 0.710, 0.00000
0.720, 0.00000, 0.730, 0.00000, 0.740, 0.00000, 0.750, 0.00000
0.760, 0.00000, 0.770, 0.00000, 0.780, 0.00000, 0.790, 0.00000
0.800, 0.00000, 0.810, 0.00000, 0.820, 0.00000, 0.830, 0.00000
0.840, 0.00000, 0.850, 0.00000, 0.860, 0.00000, 0.870, 0.00000
0.880, 0.00000, 0.890, 0.00000, 0.900, 0.00000, 0.910, 0.00000
0.920, 0.00000, 0.930, 0.00000, 0.940, 0.00000, 0.950, 0.00000
0.960, 0.00000, 0.970, 0.00000, 0.980, 0.00000, 0.990, 0.00000
1.000, 0.00000, 1.010, 0.00000, 1.020, 0.00000, 1.030, 0.00000
1.040, 0.00000, 1.050, 0.00000, 1.060, 0.00000, 1.070, 0.00000
1.080, 0.00000, 1.090, 0.00000, 1.100, 0.00000, 1.110, 0.00000
1.120, 0.00000, 1.130, 0.00000, 1.140, 0.00000, 1.150, 0.00000
1.160, 0.00000, 1.170, 0.00000, 1.180, 0.00000, 1.190, 0.00000
1.200, 0.00000, 1.210, 0.00000, 1.220, 0.00000, 1.230, 0.00000
1.240, 0.00000, 1.250, 0.00000, 1.260, 0.00000, 1.270, 0.00000
1.280, 0.00000, 1.290, 0.00000, 1.300, 0.00000, 1.310, 0.00000
1.320, 0.00000, 1.330, 0.00000, 1.340, 0.00000, 1.350, 0.00000
1.360, 0.00000, 1.370, 0.00000, 1.380, 0.00000, 1.390, 0.00000
1.400, 0.00000, 1.410, 0.00000, 1.420, 0.00000, 1.430, 0.00000
1.440, 0.00000, 1.450, 0.00000, 1.460, 0.00000, 1.470, 0.00000
1.480, 0.00000, 1.490, 0.00000, 1.500, 0.00000, 1.510, 0.00000
1.520, 0.00000, 1.530, 0.00000, 1.540, 0.00000, 1.550, 0.00000
1.560, 0.00000, 1.570, 0.00000, 1.580, 0.00000, 1.590, 0.00000
1.600, 0.00000, 1.610, 0.00000, 1.620, 0.00000, 1.630, 0.00000
1.640, 0.00000, 1.650, 0.00000, 1.660, 0.00000, 1.670, 0.00000
1.680, 0.00000, 1.690, 0.00000, 1.700, 0.00000, 1.710, 0.00000
1.720, 0.00000, 1.730, 0.00000, 1.740, 0.00000, 1.750, 0.00000
1.760, 0.00000, 1.770, 0.00000, 1.780, 0.00000, 1.790, 0.00000
1.800, 0.00000, 1.810, 0.00000, 1.820, 0.00000, 1.830, 0.00000
1.840, 0.00000, 1.850, 0.00000, 1.860, 0.00000, 1.870, 0.00000
1.880, 0.00000, 1.890, 0.00000, 1.900, 0.00000, 1.910, 0.00000
1.920, 0.00000, 1.930, 0.00000, 1.940, 0.00000, 1.950, 0.00000
1.960, 0.00000, 1.970, 0.00000, 1.980, 0.00000, 1.990, 0.00000
2.000, 0.00000, 2.010, 3838.82773, 2.020, 7677.65545, 2.030, 11516.48318
2.040, 15355.31091, 2.050, 19194.13863, 2.060, 18234.43170, 2.070, 17274.72477
2.080, 16315.01784, 2.090, 15355.31091, 2.100, 14395.60397, 2.110, 13435.89704
2.120, 12476.19011, 2.130, 11516.48318, 2.140, 10556.77625, 2.150, 9597.06932
2.160, 8637.36238, 2.170, 7677.65545, 2.180, 6717.94852, 2.190, 5758.24159
2.200, 4798.53466, 2.210, 3838.82773, 2.220, 2879.12079, 2.230, 1919.41386
2.240, 959.70693, 2.250, 0.00000, 2.260, 0.00000, 2.270, 0.00000
2.280, 0.00000, 2.290, 0.00000, 2.300, 0.00000, 2.310, 0.00000
2.320, 0.00000, 2.330, 0.00000, 2.340, 0.00000, 2.350, 0.00000
2.360, 0.00000, 2.370, 0.00000, 2.380, 0.00000, 2.390, 0.00000
2.400, 0.00000, 2.410, 0.00000, 2.420, 0.00000, 2.430, 0.00000
2.440, 0.00000, 2.450, 0.00000, 2.460, 0.00000, 2.470, 0.00000
2.480, 0.00000, 2.490, 0.00000, 2.500, 0.00000, 2.510, 0.00000
2.520, 0.00000, 2.530, 0.00000, 2.540, 0.00000, 2.550, 0.00000
2.560, 0.00000, 2.570, 0.00000, 2.580, 0.00000, 2.590, 0.00000
2.600, 0.00000, 2.610, 0.00000, 2.620, 0.00000, 2.630, 0.00000
2.640, 0.00000, 2.650, 0.00000, 2.660, 0.00000, 2.670, 0.00000
2.680, 0.00000, 2.690, 0.00000, 2.700, 0.00000, 2.710, 0.00000
2.720, 0.00000, 2.730, 0.00000, 2.740, 0.00000, 2.750, 0.00000
2.760, 0.00000, 2.770, 0.00000, 2.780, 0.00000, 2.790, 0.00000
2.800, 0.00000, 2.810, 0.00000, 2.820, 0.00000, 2.830, 0.00000
2.840, 0.00000, 2.850, 0.00000, 2.860, 0.00000, 2.870, 0.00000
2.880, 0.00000, 2.890, 0.00000, 2.900, 0.00000, 2.910, 0.00000
2.920, 0.00000, 2.930, 0.00000, 2.940, 0.00000, 2.950, 0.00000
2.960, 0.00000, 2.970, 0.00000, 2.980, 0.00000, 2.990, 0.00000
3.000, 0.00000, 3.010, 0.00000, 3.020, 0.00000, 3.030, 0.00000
3.040, 0.00000, 3.050, 0.00000, 3.060, 0.00000, 3.070, 0.00000
3.080, 0.00000, 3.090, 0.00000, 3.100, 0.00000, 3.110, 0.00000
3.120, 0.00000, 3.130, 0.00000, 3.140, 0.00000, 3.150, 0.00000
3.160, 0.00000, 3.170, 0.00000, 3.180, 0.00000, 3.190, 0.00000
3.200, 0.00000, 3.210, 0.00000, 3.220, 0.00000, 3.230, 0.00000
3.240, 0.00000, 3.250, 0.00000, 3.260, 0.00000, 3.270, 0.00000
3.280, 0.00000, 3.290, 0.00000, 3.300, 0.00000, 3.310, 0.00000
3.320, 0.00000, 3.330, 0.00000, 3.340, 0.00000, 3.350, 0.00000
3.360, 0.00000, 3.370, 0.00000, 3.380, 0.00000, 3.390, 0.00000
3.400, 0.00000, 3.410, 0.00000, 3.420, 0.00000, 3.430, 0.00000
3.440, 0.00000, 3.450, 0.00000, 3.460, 0.00000, 3.470, 0.00000
3.480, 0.00000, 3.490, 0.00000, 3.500, 0.00000, 3.510, 0.00000
3.520, 0.00000, 3.530, 0.00000, 3.540, 0.00000, 3.550, 0.00000
3.560, 0.00000, 3.570, 0.00000, 3.580, 0.00000, 3.590, 0.00000
3.600, 0.00000, 3.610, 0.00000, 3.620, 0.00000, 3.630, 0.00000
3.640, 0.00000, 3.650, 0.00000, 3.660, 0.00000, 3.670, 0.00000
3.680, 0.00000, 3.690, 0.00000, 3.700, 0.00000, 3.710, 0.00000
3.720, 0.00000, 3.730, 0.00000, 3.740, 0.00000, 3.750, 0.00000
3.760, 0.00000, 3.770, 0.00000, 3.780, 0.00000, 3.790, 0.00000
3.800, 0.00000, 3.810, 0.00000, 3.820, 0.00000, 3.830, 0.00000
3.840, 0.00000, 3.850, 0.00000, 3.860, 0.00000, 3.870, 0.00000
3.880, 0.00000, 3.890, 0.00000, 3.900, 0.00000, 3.910, 0.00000
3.920, 0.00000, 3.930, 0.00000, 3.940, 0.00000, 3.950, 0.00000
3.960, 0.00000, 3.970, 0.00000, 3.980, 0.00000, 3.990, 0.00000
4.000, 0.00000, 4.010, 3807.23795, 4.020, 7614.47590, 4.030, 11421.71385
4.040, 15228.95181, 4.050, 19036.18976, 4.060, 18084.38027, 4.070, 17132.57078
4.080, 16180.76129, 4.090, 15228.95181, 4.100, 14277.14232, 4.110, 13325.33283
4.120, 12373.52334, 4.130, 11421.71385, 4.140, 10469.90437, 4.150, 9518.09488
4.160, 8566.28539, 4.170, 7614.47590, 4.180, 6662.66641, 4.190, 5710.85693
4.200, 4759.04744, 4.210, 3807.23795, 4.220, 2855.42846, 4.230, 1903.61898
4.240, 951.80949, 4.250, 0.00000, 4.260, 0.00000, 4.270, 0.00000
4.280, 0.00000, 4.290, 0.00000, 4.300, 0.00000, 4.310, 0.00000
4.320, 0.00000, 4.330, 0.00000, 4.340, 0.00000, 4.350, 0.00000
4.360, 0.00000, 4.370, 0.00000, 4.380, 0.00000, 4.390, 0.00000
4.400, 0.00000, 4.410, 0.00000, 4.420, 0.00000, 4.430, 0.00000
4.440, 0.00000, 4.450, 0.00000, 4.460, 0.00000, 4.470, 0.00000
4.480, 0.00000, 4.490, 0.00000, 4.500, 0.00000, 4.510, 0.00000
4.520, 0.00000, 4.530, 0.00000, 4.540, 0.00000, 4.550, 0.00000
4.560, 0.00000, 4.570, 0.00000, 4.580, 0.00000, 4.590, 0.00000
4.600, 0.00000, 4.610, 0.00000, 4.620, 0.00000, 4.630, 0.00000
4.640, 0.00000, 4.650, 0.00000, 4.660, 0.00000, 4.670, 0.00000
4.680, 0.00000, 4.690, 0.00000, 4.700, 0.00000, 4.710, 0.00000
4.720, 0.00000, 4.730, 0.00000, 4.740, 0.00000, 4.750, 0.00000
4.760, 0.00000, 4.770, 0.00000, 4.780, 0.00000, 4.790, 0.00000
4.800, 0.00000, 4.810, 0.00000, 4.820, 0.00000, 4.830, 0.00000
4.840, 0.00000, 4.850, 0.00000, 4.860, 0.00000, 4.870, 0.00000
4.880, 0.00000, 4.890, 0.00000, 4.900, 0.00000, 4.910, 0.00000
4.920, 0.00000, 4.930, 0.00000, 4.940, 0.00000, 4.950, 0.00000
4.960, 0.00000, 4.970, 0.00000, 4.980, 0.00000, 4.990, 0.00000
5.000, 0.00000, 5.010, 0.00000, 5.020, 0.00000, 5.030, 0.00000
5.040, 0.00000, 5.050, 0.00000, 5.060, 0.00000, 5.070, 0.00000
5.080, 0.00000, 5.090, 0.00000, 5.100, 0.00000, 5.110, 0.00000
5.120, 0.00000, 5.130, 0.00000, 5.140, 0.00000, 5.150, 0.00000
5.160, 0.00000, 5.170, 0.00000, 5.180, 0.00000, 5.190, 0.00000
5.200, 0.00000, 5.210, 0.00000, 5.220, 0.00000, 5.230, 0.00000
5.240, 0.00000, 5.250, 0.00000, 5.260, 0.00000, 5.270, 0.00000
5.280, 0.00000, 5.290, 0.00000, 5.300, 0.00000, 5.310, 0.00000
5.320, 0.00000, 5.330, 0.00000, 5.340, 0.00000, 5.350, 0.00000
5.360, 0.00000, 5.370, 0.00000, 5.380, 0.00000, 5.390, 0.00000
5.400, 0.00000, 5.410, 0.00000, 5.420, 0.00000, 5.430, 0.00000
5.440, 0.00000, 5.450, 0.00000, 5.460, 0.00000, 5.470, 0.00000
5.480, 0.00000, 5.490, 0.00000, 5.500, 0.00000, 5.510, 0.00000
5.520, 0.00000, 5.530, 0.00000, 5.540, 0.00000, 5.550, 0.00000
5.560, 0.00000, 5.570, 0.00000, 5.580, 0.00000, 5.590, 0.00000
5.600, 0.00000, 5.610, 0.00000, 5.620, 0.00000, 5.630, 0.00000
5.640, 0.00000, 5.650, 0.00000, 5.660, 0.00000, 5.670, 0.00000
5.680, 0.00000, 5.690, 0.00000, 5.700, 0.00000, 5.710, 0.00000
5.720, 0.00000, 5.730, 0.00000, 5.740, 0.00000, 5.750, 0.00000
5.760, 0.00000, 5.770, 0.00000, 5.780, 0.00000, 5.790, 0.00000
5.800, 0.00000, 5.810, 0.00000, 5.820, 0.00000, 5.830, 0.00000
5.840, 0.00000, 5.850, 0.00000, 5.860, 0.00000, 5.870, 0.00000
5.880, 0.00000, 5.890, 0.00000, 5.900, 0.00000, 5.910, 0.00000
5.920, 0.00000, 5.930, 0.00000, 5.940, 0.00000, 5.950, 0.00000
5.960, 0.00000, 5.970, 0.00000, 5.980, 0.00000, 5.990, 0.00000
6.000, 0.00000, 6.010, 3779.61703, 6.020, 7559.23407, 6.030, 11338.85110
6.040, 15118.46814, 6.050, 18898.08517, 6.060, 17953.18091, 6.070, 17008.27666
6.080, 16063.37240, 6.090, 15118.46814, 6.100, 14173.56388, 6.110, 13228.65962
6.120, 12283.75536, 6.130, 11338.85110, 6.140, 10393.94685, 6.150, 9449.04259
6.160, 8504.13833, 6.170, 7559.23407, 6.180, 6614.32981, 6.190, 5669.42555
6.200, 4724.52129, 6.210, 3779.61703, 6.220, 2834.71278, 6.230, 1889.80852
6.240, 944.90426, 6.250, 0.00000, 6.260, 0.00000, 6.270, 0.00000
6.280, 0.00000, 6.290, 0.00000, 6.300, 0.00000, 6.310, 0.00000
6.320, 0.00000, 6.330, 0.00000, 6.340, 0.00000, 6.350, 0.00000
6.360, 0.00000, 6.370, 0.00000, 6.380, 0.00000, 6.390, 0.00000
6.400, 0.00000, 6.410, 0.00000, 6.420, 0.00000, 6.430, 0.00000
6.440, 0.00000, 6.450, 0.00000, 6.460, 0.00000, 6.470, 0.00000
6.480, 0.00000, 6.490, 0.00000, 6.500, 0.00000, 6.510, 0.00000
6.520, 0.00000, 6.530, 0.00000, 6.540, 0.00000, 6.550, 0.00000
6.560, 0.00000, 6.570, 0.00000, 6.580, 0.00000, 6.590, 0.00000
6.600, 0.00000, 6.610, 0.00000, 6.620, 0.00000, 6.630, 0.00000
6.640, 0.00000, 6.650, 0.00000, 6.660, 0.00000, 6.670, 0.00000
6.680, 0.00000, 6.690, 0.00000, 6.700, 0.00000, 6.710, 0.00000
6.720, 0.00000, 6.730, 0.00000, 6.740, 0.00000, 6.750, 0.00000
6.760, 0.00000, 6.770, 0.00000, 6.780, 0.00000, 6.790, 0.00000
6.800, 0.00000, 6.810, 0.00000, 6.820, 0.00000, 6.830, 0.00000
6.840, 0.00000, 6.850, 0.00000, 6.860, 0.00000, 6.870, 0.00000
6.880, 0.00000, 6.890, 0.00000, 6.900, 0.00000, 6.910, 0.00000
6.920, 0.00000, 6.930, 0.00000, 6.940, 0.00000, 6.950, 0.00000
6.960, 0.00000, 6.970, 0.00000, 6.980, 0.00000, 6.990, 0.00000
7.000, 0.00000, 7.010, 0.00000, 7.020, 0.00000, 7.030, 0.00000
7.040, 0.00000, 7.050, 0.00000, 7.060, 0.00000, 7.070, 0.00000
7.080, 0.00000, 7.090, 0.00000, 7.100, 0.00000, 7.110, 0.00000
7.120, 0.00000, 7.130, 0.00000, 7.140, 0.00000, 7.150, 0.00000
7.160, 0.00000, 7.170, 0.00000, 7.180, 0.00000, 7.190, 0.00000
7.200, 0.00000, 7.210, 0.00000, 7.220, 0.00000, 7.230, 0.00000
7.240, 0.00000, 7.250, 0.00000, 7.260, 0.00000, 7.270, 0.00000
7.280, 0.00000, 7.290, 0.00000, 7.300, 0.00000, 7.310, 0.00000
7.320, 0.00000, 7.330, 0.00000, 7.340, 0.00000, 7.350, 0.00000
7.360, 0.00000, 7.370, 0.00000, 7.380, 0.00000, 7.390, 0.00000
7.400, 0.00000, 7.410, 0.00000, 7.420, 0.00000, 7.430, 0.00000
7.440, 0.00000, 7.450, 0.00000, 7.460, 0.00000, 7.470, 0.00000
7.480, 0.00000, 7.490, 0.00000, 7.500, 0.00000, 7.510, 0.00000
7.520, 0.00000, 7.530, 0.00000, 7.540, 0.00000, 7.550, 0.00000
7.560, 0.00000, 7.570, 0.00000, 7.580, 0.00000, 7.590, 0.00000
7.600, 0.00000, 7.610, 0.00000, 7.620, 0.00000, 7.630, 0.00000
7.640, 0.00000, 7.650, 0.00000, 7.660, 0.00000, 7.670, 0.00000
7.680, 0.00000, 7.690, 0.00000, 7.700, 0.00000, 7.710, 0.00000
7.720, 0.00000, 7.730, 0.00000, 7.740, 0.00000, 7.750, 0.00000
7.760, 0.00000, 7.770, 0.00000, 7.780, 0.00000, 7.790, 0.00000
7.800, 0.00000, 7.810, 0.00000, 7.820, 0.00000, 7.830, 0.00000
7.840, 0.00000, 7.850, 0.00000, 7.860, 0.00000, 7.870, 0.00000
7.880, 0.00000, 7.890, 0.00000, 7.900, 0.00000, 7.910, 0.00000
7.920, 0.00000, 7.930, 0.00000, 7.940, 0.00000, 7.950, 0.00000
7.960, 0.00000, 7.970, 0.00000, 7.980, 0.00000, 7.990, 0.00000
8.000, 0.00000, 8.010, 3754.93029, 8.020, 7509.86058, 8.030, 11264.79088
8.040, 15019.72117, 8.050, 18774.65146, 8.060, 17835.91889, 8.070, 16897.18631
8.080, 15958.45374, 8.090, 15019.72117, 8.100, 14080.98860, 8.110, 13142.25602
8.120, 12203.52345, 8.130, 11264.79088, 8.140, 10326.05830, 8.150, 9387.32573
8.160, 8448.59316, 8.170, 7509.86058, 8.180, 6571.12801, 8.190, 5632.39544
8.200, 4693.66287, 8.210, 3754.93029, 8.220, 2816.19772, 8.230, 1877.46515
8.240, 938.73257, 8.250, 0.00000, 8.260, 0.00000, 8.270, 0.00000
8.280, 0.00000, 8.290, 0.00000, 8.300, 0.00000, 8.310, 0.00000
8.320, 0.00000, 8.330, 0.00000, 8.340, 0.00000, 8.350, 0.00000
8.360, 0.00000, 8.370, 0.00000, 8.380, 0.00000, 8.390, 0.00000
8.400, 0.00000, 8.410, 0.00000, 8.420, 0.00000, 8.430, 0.00000
8.440, 0.00000, 8.450, 0.00000, 8.460, 0.00000, 8.470, 0.00000
8.480, 0.00000, 8.490, 0.00000, 8.500, 0.00000, 8.510, 0.00000
8.520, 0.00000, 8.530, 0.00000, 8.540, 0.00000, 8.550, 0.00000
8.560, 0.00000, 8.570, 0.00000, 8.580, 0.00000, 8.590, 0.00000
8.600, 0.00000, 8.610, 0.00000, 8.620, 0.00000, 8.630, 0.00000
8.640, 0.00000, 8.650, 0.00000, 8.660, 0.00000, 8.670, 0.00000
8.680, 0.00000, 8.690, 0.00000, 8.700, 0.00000, 8.710, 0.00000
8.720, 0.00000, 8.730, 0.00000, 8.740, 0.00000, 8.750, 0.00000
8.760, 0.00000, 8.770, 0.00000, 8.780, 0.00000, 8.790, 0.00000
8.800, 0.00000, 8.810, 0.00000, 8.820, 0.00000, 8.830, 0.00000
8.840, 0.00000, 8.850, 0.00000, 8.860, 0.00000, 8.870, 0.00000
8.880, 0.00000, 8.890, 0.00000, 8.900, 0.00000, 8.910, 0.00000
8.920, 0.00000, 8.930, 0.00000, 8.940, 0.00000, 8.950, 0.00000
8.960, 0.00000, 8.970, 0.00000, 8.980, 0.00000, 8.990, 0.00000
9.000, 0.00000, 9.010, 0.00000, 9.020, 0.00000, 9.030, 0.00000
9.040, 0.00000, 9.050, 0.00000, 9.060, 0.00000, 9.070, 0.00000
9.080, 0.00000, 9.090, 0.00000, 9.100, 0.00000, 9.110, 0.00000
9.120, 0.00000, 9.130, 0.00000, 9.140, 0.00000, 9.150, 0.00000
9.160, 0.00000, 9.170, 0.00000, 9.180, 0.00000, 9.190, 0.00000
9.200, 0.00000, 9.210, 0.00000, 9.220, 0.00000, 9.230, 0.00000
9.240, 0.00000, 9.250, 0.00000, 9.260, 0.00000, 9.270, 0.00000
9.280, 0.00000, 9.290, 0.00000, 9.300, 0.00000, 9.310, 0.00000
9.320, 0.00000, 9.330, 0.00000, 9.340, 0.00000, 9.350, 0.00000
9.360, 0.00000, 9.370, 0.00000, 9.380, 0.00000, 9.390, 0.00000
9.400, 0.00000, 9.410, 0.00000, 9.420, 0.00000, 9.430, 0.00000
9.440, 0.00000, 9.450, 0.00000, 9.460, 0.00000, 9.470, 0.00000
9.480, 0.00000, 9.490, 0.00000, 9.500, 0.00000, 9.510, 0.00000
9.520, 0.00000, 9.530, 0.00000, 9.540, 0.00000, 9.550, 0.00000
9.560, 0.00000, 9.570, 0.00000, 9.580, 0.00000, 9.590, 0.00000
9.600, 0.00000, 9.610, 0.00000, 9.620, 0.00000, 9.630, 0.00000
9.640, 0.00000, 9.650, 0.00000, 9.660, 0.00000, 9.670, 0.00000
9.680, 0.00000, 9.690, 0.00000, 9.700, 0.00000, 9.710, 0.00000
9.720, 0.00000, 9.730, 0.00000, 9.740, 0.00000, 9.750, 0.00000
9.760, 0.00000, 9.770, 0.00000, 9.780, 0.00000, 9.790, 0.00000
9.800, 0.00000, 9.810, 0.00000, 9.820, 0.00000, 9.830, 0.00000
9.840, 0.00000, 9.850, 0.00000, 9.860, 0.00000, 9.870, 0.00000
9.880, 0.00000, 9.890, 0.00000, 9.900, 0.00000, 9.910, 0.00000
9.920, 0.00000, 9.930, 0.00000, 9.940, 0.00000, 9.950, 0.00000
9.960, 0.00000, 9.970, 0.00000, 9.980, 0.00000, 9.990, 0.00000
*AMPLITUDE, NAME=ROW15
0.000, 0.00000, 0.010, 2518.36024, 0.020, 5036.72049, 0.030, 7555.08073
0.040, 10073.44097, 0.050, 12591.80122, 0.060, 11962.21116, 0.070, 11332.62110
0.080, 10703.03103, 0.090, 10073.44097, 0.100, 9443.85091, 0.110, 8814.26085
0.120, 8184.67079, 0.130, 7555.08073, 0.140, 6925.49067, 0.150, 6295.90061
0.160, 5666.31055, 0.170, 5036.72049, 0.180, 4407.13043, 0.190, 3777.54037
0.200, 3147.95030, 0.210, 2518.36024, 0.220, 1888.77018, 0.230, 1259.18012
0.240, 629.59006, 0.250, 0.00000, 0.260, 0.00000, 0.270, 0.00000
0.280, 0.00000, 0.290, 0.00000, 0.300, 0.00000, 0.310, 0.00000
0.320, 0.00000, 0.330, 0.00000, 0.340, 0.00000, 0.350, 0.00000
0.360, 0.00000, 0.370, 0.00000, 0.380, 0.00000, 0.390, 0.00000
0.400, 0.00000, 0.410, 0.00000, 0.420, 0.00000, 0.430, 0.00000
0.440, 0.00000, 0.450, 0.00000, 0.460, 0.00000, 0.470, 0.00000
0.480, 0.00000, 0.490, 0.00000, 0.500, 0.00000, 0.510, 0.00000
0.520, 0.00000, 0.530, 0.00000, 0.540, 0.00000, 0.550, 0.00000
0.560, 0.00000, 0.570, 0.00000, 0.580, 0.00000, 0.590, 0.00000
0.600, 0.00000, 0.610, 0.00000, 0.620, 0.00000, 0.630, 0.00000
0.640, 0.00000, 0.650, 0.00000, 0.660, 0.00000, 0.670, 0.00000
0.680, 0.00000, 0.690, 0.00000, 0.700, 0.00000, 0.710, 0.00000
0.720, 0.00000, 0.730, 0.00000, 0.740, 0.00000, 0.750, 0.00000
0.760, 0.00000, 0.770, 0.00000, 0.780, 0.00000, 0.790, 0.00000
0.800, 0.00000, 0.810, 0.00000, 0.820, 0.00000, 0.830, 0.00000
0.840, 0.00000, 0.850, 0.00000, 0.860, 0.00000, 0.870, 0.00000
0.880, 0.00000, 0.890, 0.00000, 0.900, 0.00000, 0.910, 0.00000
0.920, 0.00000, 0.930, 0.00000, 0.940, 0.00000, 0.950, 0.00000
0.960, 0.00000, 0.970, 0.00000, 0.980, 0.00000, 0.990, 0.00000
1.000, 0.00000, 1.010, 0.00000, 1.020, 0.00000, 1.030, 0.00000
1.040, 0.00000, 1.050, 0.00000, 1.060, 0.00000, 1.070, 0.00000
1.080, 0.00000, 1.090, 0.00000, 1.100, 0.00000, 1.110, 0.00000
1.120, 0.00000, 1.130, 0.00000, 1.140, 0.00000, 1.150, 0.00000
1.160, 0.00000, 1.170, 0.00000, 1.180, 0.00000, 1.190, 0.00000
1.200, 0.00000, 1.210, 0.00000, 1.220, 0.00000, 1.230, 0.00000
1.240, 0.00000, 1.250, 0.00000, 1.260, 0.00000, 1.270, 0.00000
1.280, 0.00000, 1.290, 0.00000, 1.300, 0.00000, 1.310, 0.00000
1.320, 0.00000, 1.330, 0.00000, 1.340, 0.00000, 1.350, 0.00000
1.360, 0.00000, 1.370, 0.00000, 1.380, 0.00000, 1.390, 0.00000
1.400, 0.00000, 1.410, 0.00000, 1.420, 0.00000, 1.430, 0.00000
1.440, 0.00000, 1.450, 0.00000, 1.460, 0.00000, 1.470, 0.00000
1.480, 0.00000, 1.490, 0.00000, 1.500, 0.00000, 1.510, 0.00000
1.520, 0.00000, 1.530, 0.00000, 1.540, 0.00000, 1.550, 0.00000
1.560, 0.00000, 1.570, 0.00000, 1.580, 0.00000, 1.590, 0.00000
1.600, 0.00000, 1.610, 0.00000, 1.620, 0.00000, 1.630, 0.00000
1.640, 0.00000, 1.650, 0.00000, 1.660, 0.00000, 1.670, 0.00000
1.680, 0.00000, 1.690, 0.00000, 1.700, 0.00000, 1.710, 0.00000
1.720, 0.00000, 1.730, 0.00000, 1.740, 0.00000, 1.750, 0.00000
1.760, 0.00000, 1.770, 0.00000, 1.780, 0.00000, 1.790, 0.00000
1.800, 0.00000, 1.810, 0.00000, 1.820, 0.00000, 1.830, 0.00000
1.840, 0.00000, 1.850, 0.00000, 1.860, 0.00000, 1.870, 0.00000
1.880, 0.00000, 1.890, 0.00000, 1.900, 0.00000, 1.910, 0.00000
1.920, 0.00000, 1.930, 0.00000, 1.940, 0.00000, 1.950, 0.00000
1.960, 0.00000, 1.970, 0.00000, 1.980, 0.00000, 1.990, 0.00000
2.000, 0.00000, 2.010, 2515.81610, 2.020, 5031.63220, 2.030, 7547.44829
2.040, 10063.26439, 2.050, 12579.08049, 2.060, 11950.12647, 2.070, 11321.17244
2.080, 10692.21842, 2.090, 10063.26439, 2.100, 9434.31037, 2.110, 8805.35634
2.120, 8176.40232, 2.130, 7547.44829, 2.140, 6918.49427, 2.150, 6289.54024
2.160, 5660.58622, 2.170, 5031.63220, 2.180, 4402.67817, 2.190, 3773.72415
2.200, 3144.77012, 2.210, 2515.81610, 2.220, 1886.86207, 2.230, 1257.90805
2.240, 628.95402, 2.250, 0.00000, 2.260, 0.00000, 2.270, 0.00000
2.280, 0.00000, 2.290, 0.00000, 2.300, 0.00000, 2.310, 0.00000
2.320, 0.00000, 2.330, 0.00000, 2.340, 0.00000, 2.350, 0.00000
2.360, 0.00000, 2.370, 0.00000, 2.380, 0.00000, 2.390, 0.00000
2.400, 0.00000, 2.410, 0.00000, 2.420, 0.00000, 2.430, 0.00000
2.440, 0.00000, 2.450, 0.00000, 2.460, 0.00000, 2.470, 0.00000
2.480, 0.00000, 2.490, 0.00000, 2.500, 0.00000, 2.510, 0.00000
2.520, 0.00000, 2.530, 0.00000, 2.540, 0.00000, 2.550, 0.00000
2.560, 0.00000, 2.570, 0.00000, 2.580, 0.00000, 2.590, 0.00000
2.600, 0.00000, 2.610, 0.00000, 2.620, 0.00000, 2.630, 0.00000
2.640, 0.00000, 2.650, 0.00000, 2.660, 0.00000, 2.670, 0.00000
2.680, 0.00000, 2.690, 0.00000, 2.700, 0.00000, 2.710, 0.00000
2.720, 0.00000, 2.730, 0.00000, 2.740, 0.00000, 2.750, 0.00000
2.760, 0.00000, 2.770, 0.00000, 2.780, 0.00000, 2.790, 0.00000
2.800, 0.00000, 2.810, 0.00000, 2.820, 0.00000, 2.830, 0.00000
2.840, 0.00000, 2.850, 0.00000, 2.860, 0.00000, 2.870, 0.00000
2.880, 0.00000, 2.890, 0.00000, 2.900, 0.00000, 2.910, 0.00000
2.920, 0.00000, 2.930, 0.00000, 2.940, 0.00000, 2.950, 0.00000
2.960, 0.00000, 2.970, 0.00000, 2.980, 0.00000, 2.990, 0.00000
3.000, 0.00000, 3.010, 0.00000, 3.020, 0.00000, 3.030, 0.00000
3.040, 0.00000, 3.050, 0.00000, 3.060, 0.00000, 3.070, 0.00000
3.080, 0.00000, 3.090, 0.00000, 3.100, 0.00000, 3.110, 0.00000
3.120, 0.00000, 3.130, 0.00000, 3.140, 0.00000, 3.150, 0.00000
3.160, 0.00000, 3.170, 0.00000, 3.180, 0.00000, 3.190, 0.00000
3.200, 0.00000, 3.210, 0.00000, 3.220, 0.00000, 3.230, 0.00000
3.240, 0.00000, 3.250, 0.00000, 3.260, 0.00000, 3.270, 0.00000
3.280, 0.00000, 3.290, 0.00000, 3.300, 0.00000, 3.310, 0.00000
3.320, 0.00000, 3.330, 0.00000, 3.340, 0.00000, 3.350, 0.00000
3.360, 0.00000, 3.370, 0.00000, 3.380, 0.00000, 3.390, 0.00000
3.400, 0.00000, 3.410, 0.00000, 3.420, 0.00000, 3.430, 0.00000
3.440, 0.00000, 3.450, 0.00000, 3.460, 0.00000, 3.470, 0.00000
3.480, 0.00000, 3.490, 0.00000, 3.500, 0.00000, 3.510, 0.00000
3.520, 0.00000, 3.530, 0.00000, 3.540, 0.00000, 3.550, 0.00000
3.560, 0.00000, 3.570, 0.00000, 3.580, 0.00000, 3.590, 0.00000
3.600, 0.00000, 3.610, 0.00000, 3.620, 0.00000, 3.630, 0.00000
3.640, 0.00000, 3.650, 0.00000, 3.660, 0.00000, 3.670, 0.00000
3.680, 0.00000, 3.690, 0.00000, 3.700, 0.00000, 3.710, 0.00000
3.720, 0.00000, 3.730, 0.00000, 3.740, 0.00000, 3.750, 0.00000
3.760, 0.00000, 3.770, 0.00000, 3.780, 0.00000, 3.790, 0.00000
3.800, 0.00000, 3.810, 0.00000, 3.820, 0.00000, 3.830, 0.00000
3.840, 0.00000, 3.850, 0.00000, 3.860, 0.00000, 3.870, 0.00000
3.880, 0.00000, 3.890, 0.00000, 3.900, 0.00000, 3.910, 0.00000
3.920, 0.00000, 3.930, 0.00000, 3.940, 0.00000, 3.950, 0.00000
3.960, 0.00000, 3.970, 0.00000, 3.980, 0.00000, 3.990, 0.00000
4.000, 0.00000, 4.010, 2504.71295, 4.020, 5009.42591, 4.030, 7514.13886
4.040, 10018.85182, 4.050, 12523.56477, 4.060, 11897.38653, 4.070, 11271.20830
4.080, 10645.03006, 4.090, 10018.85182, 4.100, 9392.67358, 4.110, 8766.49534
4.120, 8140.31710, 4.130, 7514.13886, 4.140, 6887.96063, 4.150, 6261.78239
4.160, 5635.60415, 4.170, 5009.42591, 4.180, 4383.24767, 4.190, 3757.06943
4.200, 3130.89119, 4.210, 2504.71295, 4.220, 1878.53472, 4.230, 1252.35648
4.240, 626.17824, 4.250, 0.00000, 4.260, 0.00000, 4.270, 0.00000
4.280, 0.00000, 4.290, 0.00000, 4.300, 0.00000, 4.310, 0.00000
4.320, 0.00000, 4.330, 0.00000, 4.340, 0.00000, 4.350, 0.00000
4.360, 0.00000, 4.370, 0.00000, 4.380, 0.00000, 4.390, 0.00000
4.400, 0.00000, 4.410, 0.00000, 4.420, 0.00000, 4.430, 0.00000
4.440, 0.00000, 4.450, 0.00000, 4.460, 0.00000, 4.470, 0.00000
4.480, 0.00000, 4.490, 0.00000, 4.500, 0.00000, 4.510, 0.00000
4.520, 0.00000, 4.530, 0.00000, 4.540, 0.00000, 4.550, 0.00000
4.560, 0.00000, 4.570, 0.00000, 4.580, 0.00000, 4.590, 0.00000
4.600, 0.00000, 4.610, 0.00000, 4.620, 0.00000, 4.630, 0.00000
4.640, 0.00000, 4.650, 0.00000, 4.660, 0.00000, 4.670, 0.00000
4.680, 0.00000, 4.690, 0.00000, 4.700, 0.00000, 4.710, 0.00000
4.720, 0.00000, 4.730, 0.00000, 4.740, 0.00000, 4.750, 0.00000
4.760, 0.00000, 4.770, 0.00000, 4.780, 0.00000, 4.790, 0.00000
4.800, 0.00000, 4.810, 0.00000, 4.820, 0.00000, 4.830, 0.00000
4.840, 0.00000, 4.850, 0.00000, 4.860, 0.00000, 4.870, 0.00000
4.880, 0.00000, 4.890, 0.00000, 4.900, 0.00000, 4.910, 0.00000
4.920, 0.00000, 4.930, 0.00000, 4.940, 0.00000, 4.950, 0.00000
4.960, 0.00000, 4.970, 0.00000, 4.980, 0.00000, 4.990, 0.00000
5.000, 0.00000, 5.010, 0.00000, 5.020, 0.00000, 5.030, 0.00000
5.040, 0.00000, 5.050, 0.00000, 5.060, 0.00000, 5.070, 0.00000
5.080, 0.00000, 5.090, 0.00000, 5.100, 0.00000, 5.110, 0.00000
5.120, 0.00000, 5.130, 0.00000, 5.140, 0.00000, 5.150, 0.00000
5.160, 0.00000, 5.170, 0.00000, 5.180, 0.00000, 5.190, 0.00000
5.200, 0.00000, 5.210, 0.00000, 5.220, 0.00000, 5.230, 0.00000
5.240, 0.00000, 5.250, 0.00000, 5.260, 0.00000, 5.270, 0.00000
5.280, 0.00000, 5.290, 0.00000, 5.300, 0.00000, 5.310, 0.00000
5.320, 0.00000, 5.330, 0.00000, 5.340, 0.00000, 5.350, 0.00000
5.360, 0.00000, 5.370, 0.00000, 5.380, 0.00000, 5.390, 0.00000
5.400, 0.00000, 5.410, 0.00000, 5.420, 0.00000, 5.430, 0.00000
5.440, 0.00000, 5.450, 0.00000, 5.460, 0.00000, 5.470, 0.00000
5.480, 0.00000, 5.490, 0.00000, 5.500, 0.00000, 5.510, 0.00000
5.520, 0.00000, 5.530, 0.00000, 5.540, 0.00000, 5.550, 0.00000
5.560, 0.00000, 5.570, 0.00000, 5.580, 0.00000, 5.590, 0.00000
5.600, 0.00000, 5.610, 0.00000, 5.620, 0.00000, 5.630, 0.00000
5.640, 0.00000, 5.650, 0.00000, 5.660, 0.00000, 5.670, 0.00000
5.680, 0.00000, 5.690, 0.00000, 5.700, 0.00000, 5.710, 0.00000
5.720, 0.00000, 5.730, 0.00000, 5.740, 0.00000, 5.750, 0.00000
5.760, 0.00000, 5.770, 0.00000, 5.780, 0.00000, 5.790, 0.00000
5.800, 0.00000, 5.810, 0.00000, 5.820, 0.00000, 5.830, 0.00000
5.840, 0.00000, 5.850, 0.00000, 5.860, 0.00000, 5.870, 0.00000
5.880, 0.00000, 5.890, 0.00000, 5.900, 0.00000, 5.910, 0.00000
5.920, 0.00000, 5.930, 0.00000, 5.940, 0.00000, 5.950, 0.00000
5.960, 0.00000, 5.970, 0.00000, 5.980, 0.00000, 5.990, 0.00000
6.000, 0.00000, 6.010, 2491.65754, 6.020, 4983.31507, 6.030, 7474.97261
6.040, 9966.63014, 6.050, 12458.28768, 6.060, 11835.37330, 6.070, 11212.45891
6.080, 10589.54453, 6.090, 9966.63014, 6.100, 9343.71576, 6.110, 8720.80138
6.120, 8097.88699, 6.130, 7474.97261, 6.140, 6852.05822, 6.150, 6229.14384
6.160, 5606.22946, 6.170, 4983.31507, 6.180, 4360.40069, 6.190, 3737.48630
6.200, 3114.57192, 6.210, 2491.65754, 6.220, 1868.74315, 6.230, 1245.82877
6.240, 622.91438, 6.250, 0.00000, 6.260, 0.00000, 6.270, 0.00000
6.280, 0.00000, 6.290, 0.00000, 6.300, 0.00000, 6.310, 0.00000
6.320, 0.00000, 6.330, 0.00000, 6.340, 0.00000, 6.350, 0.00000
6.360, 0.00000, 6.370, 0.00000, 6.380, 0.00000, 6.390, 0.00000
6.400, 0.00000, 6.410, 0.00000, 6.420, 0.00000, 6.430, 0.00000
6.440, 0.00000, 6.450, 0.00000, 6.460, 0.00000, 6.470, 0.00000
6.480, 0.00000, 6.490, 0.00000, 6.500, 0.00000, 6.510, 0.00000
6.520, 0.00000, 6.530, 0.00000, 6.540, 0.00000, 6.550, 0.00000
6.560, 0.00000, 6.570, 0.00000, 6.580, 0.00000, 6.590, 0.00000
6.600, 0.00000, 6.610, 0.00000, 6.620, 0.00000, 6.630, 0.00000
6.640, 0.00000, 6.650, 0.00000, 6.660, 0.00000, 6.670, 0.00000
6.680, 0.00000, 6.690, 0.00000, 6.700, 0.00000, 6.710, 0.00000
6.720, 0.00000, 6.730, 0.00000, 6.740, 0.00000, 6.750, 0.00000
6.760, 0.00000, 6.770, 0.00000, 6.780, 0.00000, 6.790, 0.00000
6.800, 0.00000, 6.810, 0.00000, 6.820, 0.00000, 6.830, 0.00000
6.840, 0.00000, 6.850, 0.00000, 6.860, 0.00000, 6.870, 0.00000
6.880, 0.00000, 6.890, 0.00000, 6.900, 0.00000, 6.910, 0.00000
6.920, 0.00000, 6.930, 0.00000, 6.940, 0.00000, 6.950, 0.00000
6.960, 0.00000, 6.970, 0.00000, 6.980, 0.00000, 6.990, 0.00000
7.000, 0.00000, 7.010, 0.00000, 7.020, 0.00000, 7.030, 0.00000
7.040, 0.00000, 7.050, 0.00000, 7.060, 0.00000, 7.070, 0.00000
7.080, 0.00000, 7.090, 0.00000, 7.100, 0.00000, 7.110, 0.00000
7.120, 0.00000, 7.130, 0.00000, 7.140, 0.00000, 7.150, 0.00000
7.160, 0.00000, 7.170, 0.00000, 7.180, 0.00000, 7.190, 0.00000
7.200, 0.00000, 7.210, 0.00000, 7.220, 0.00000, 7.230, 0.00000
7.240, 0.00000, 7.250, 0.00000, 7.260, 0.00000, 7.270, 0.00000
7.280, 0.00000, 7.290, 0.00000, 7.300, 0.00000, 7.310, 0.00000
7.320, 0.00000, 7.330, 0.00000, 7.340, 0.00000, 7.350, 0.00000
7.360, 0.00000, 7.370, 0.00000, 7.380, 0.00000, 7.390, 0.00000
7.400, 0.00000, 7.410, 0.00000, 7.420, 0.00000, 7.430, 0.00000
7.440, 0.00000, 7.450, 0.00000, 7.460, 0.00000, 7.470, 0.00000
7.480, 0.00000, 7.490, 0.00000, 7.500, 0.00000, 7.510, 0.00000
7.520, 0.00000, 7.530, 0.00000, 7.540, 0.00000, 7.550, 0.00000
7.560, 0.00000, 7.570, 0.00000, 7.580, 0.00000, 7.590, 0.00000
7.600, 0.00000, 7.610, 0.00000, 7.620, 0.00000, 7.630, 0.00000
7.640, 0.00000, 7.650, 0.00000, 7.660, 0.00000, 7.670, 0.00000
7.680, 0.00000, 7.690, 0.00000, 7.700, 0.00000, 7.710, 0.00000
7.720, 0.00000, 7.730, 0.00000, 7.740, 0.00000, 7.750, 0.00000
7.760, 0.00000, 7.770, 0.00000, 7.780, 0.00000, 7.790, 0.00000
7.800, 0.00000, 7.810, 0.00000, 7.820, 0.00000, 7.830, 0.00000
7.840, 0.00000, 7.850, 0.00000, 7.860, 0.00000, 7.870, 0.00000
7.880, 0.00000, 7.890, 0.00000, 7.900, 0.00000, 7.910, 0.00000
7.920, 0.00000, 7.930, 0.00000, 7.940, 0.00000, 7.950, 0.00000
7.960, 0.00000, 7.970, 0.00000, 7.980, 0.00000, 7.990, 0.00000
8.000, 0.00000, 8.010, 2478.16662, 8.020, 4956.33323, 8.030, 7434.49985
8.040, 9912.66647, 8.050, 12390.83309, 8.060, 11771.29143, 8.070, 11151.74978
8.080, 10532.20812, 8.090, 9912.66647, 8.100, 9293.12482, 8.110, 8673.58316
8.120, 8054.04151, 8.130, 7434.49985, 8.140, 6814.95820, 8.150, 6195.41654
8.160, 5575.87489, 8.170, 4956.33323, 8.180, 4336.79158, 8.190, 3717.24993
8.200, 3097.70827, 8.210, 2478.16662, 8.220, 1858.62496, 8.230, 1239.08331
8.240, 619.54165, 8.250, 0.00000, 8.260, 0.00000, 8.270, 0.00000
8.280, 0.00000, 8.290, 0.00000, 8.300, 0.00000, 8.310, 0.00000
8.320, 0.00000, 8.330, 0.00000, 8.340, 0.00000, 8.350, 0.00000
8.360, 0.00000, 8.370, 0.00000, 8.380, 0.00000, 8.390, 0.00000
8.400, 0.00000, 8.410, 0.00000, 8.420, 0.00000, 8.430, 0.00000
8.440, 0.00000, 8.450, 0.00000, 8.460, 0.00000, 8.470, 0.00000
8.480, 0.00000, 8.490, 0.00000, 8.500, 0.00000, 8.510, 0.00000
8.520, 0.00000, 8.530, 0.00000, 8.540, 0.00000, 8.550, 0.00000
8.560, 0.00000, 8.570, 0.00000, 8.580, 0.00000, 8.590, 0.00000
8.600, 0.00000, 8.610, 0.00000, 8.620, 0.00000, 8.630, 0.00000
8.640, 0.00000, 8.650, 0.00000, 8.660, 0.00000, 8.670, 0.00000
8.680, 0.00000, 8.690, 0.00000, 8.700, 0.00000, 8.710, 0.00000
8.720, 0.00000, 8.730, 0.00000, 8.740, 0.00000, 8.750, 0.00000
8.760, 0.00000, 8.770, 0.00000, 8.780, 0.00000, 8.790, 0.00000
8.800, 0.00000, 8.810, 0.00000, 8.820, 0.00000, 8.830, 0.00000
8.840, 0.00000, 8.850, 0.00000, 8.860, 0.00000, 8.870, 0.00000
8.880, 0.00000, 8.890, 0.00000, 8.900, 0.00000, 8.910, 0.00000
8.920, 0.00000, 8.930, 0.00000, 8.940, 0.00000, 8.950, 0.00000
8.960, 0.00000, 8.970, 0.00000, 8.980, 0.00000, 8.990, 0.00000
9.000, 0.00000, 9.010, 0.00000, 9.020, 0.00000, 9.030, 0.00000
9.040, 0.00000, 9.050, 0.00000, 9.060, 0.00000, 9.070, 0.00000
9.080, 0.00000, 9.090, 0.00000, 9.100, 0.00000, 9.110, 0.00000
9.120, 0.00000, 9.130, 0.00000, 9.140, 0.00000, 9.150, 0.00000
9.160, 0.00000, 9.170, 0.00000, 9.180, 0.00000, 9.190, 0.00000
9.200, 0.00000, 9.210, 0.00000, 9.220, 0.00000, 9.230, 0.00000
9.240, 0.00000, 9.250, 0.00000, 9.260, 0.00000, 9.270, 0.00000
9.280, 0.00000, 9.290, 0.00000, 9.300, 0.00000, 9.310, 0.00000
9.320, 0.00000, 9.330, 0.00000, 9.340, 0.00000, 9.350, 0.00000
9.360, 0.00000, 9.370, 0.00000, 9.380, 0.00000, 9.390, 0.00000
9.400, 0.00000, 9.410, 0.00000, 9.420, 0.00000, 9.430, 0.00000
9.440, 0.00000, 9.450, 0.00000, 9.460, 0.00000, 9.470, 0.00000
9.480, 0.00000, 9.490, 0.00000, 9.500, 0.00000, 9.510, 0.00000
9.520, 0.00000, 9.530, 0.00000, 9.540, 0.00000, 9.550, 0.00000
9.560, 0.00000, 9.570, 0.00000, 9.580, 0.00000, 9.590, 0.00000
9.600, 0.00000, 9.610, 0.00000, 9.620, 0.00000, 9.630, 0.00000
9.640, 0.00000, 9.650, 0.00000, 9.660, 0.00000, 9.670, 0.00000
9.680, 0.00000, 9.690, 0.00000, 9.700, 0.00000, 9.710, 0.00000
9.720, 0.00000, 9.730, 0.00000, 9.740, 0.00000, 9.750, 0.00000
9.760, 0.00000, 9.770, 0.00000, 9.780, 0.00000, 9.790, 0.00000
9.800, 0.00000, 9.810, 0.00000, 9.820, 0.00000, 9.830, 0.00000
9.840, 0.00000, 9.850, 0.00000, 9.860, 0.00000, 9.870, 0.00000
9.880, 0.00000, 9.890, 0.00000, 9.900, 0.00000, 9.910, 0.00000
9.920, 0.00000, 9.930, 0.00000, 9.940, 0.00000, 9.950, 0.00000
9.960, 0.00000, 9.970, 0.00000, 9.980, 0.00000, 9.990, 0.00000
*AMPLITUDE, NAME=ROW16
0.000, 0.00000, 0.010, 1127.42327, 0.020, 2254.84655, 0.030, 3382.26982
0.040, 4509.69310, 0.050, 5637.11637, 0.060, 5355.26056, 0.070, 5073.40474
0.080, 4791.54892, 0.090, 4509.69310, 0.100, 4227.83728, 0.110, 3945.98146
0.120, 3664.12564, 0.130, 3382.26982, 0.140, 3100.41401, 0.150, 2818.55819
0.160, 2536.70237, 0.170, 2254.84655, 0.180, 1972.99073, 0.190, 1691.13491
0.200, 1409.27909, 0.210, 1127.42327, 0.220, 845.56746, 0.230, 563.71164
0.240, 281.85582, 0.250, 0.00000, 0.260, 0.00000, 0.270, 0.00000
0.280, 0.00000, 0.290, 0.00000, 0.300, 0.00000, 0.310, 0.00000
0.320, 0.00000, 0.330, 0.00000, 0.340, 0.00000, 0.350, 0.00000
0.360, 0.00000, 0.370, 0.00000, 0.380, 0.00000, 0.390, 0.00000
0.400, 0.00000, 0.410, 0.00000, 0.420, 0.00000, 0.430, 0.00000
0.440, 0.00000, 0.450, 0.00000, 0.460, 0.00000, 0.470, 0.00000
0.480, 0.00000, 0.490, 0.00000, 0.500, 0.00000, 0.510, 0.00000
0.520, 0.00000, 0.530, 0.00000, 0.540, 0.00000, 0.550, 0.00000
0.560, 0.00000, 0.570, 0.00000, 0.580, 0.00000, 0.590, 0.00000
0.600, 0.00000, 0.610, 0.00000, 0.620, 0.00000, 0.630, 0.00000
0.640, 0.00000, 0.650, 0.00000, 0.660, 0.00000, 0.670, 0.00000
0.680, 0.00000, 0.690, 0.00000, 0.700, 0.00000, 0.710, 0.00000
0.720, 0.00000, 0.730, 0.00000, 0.740, 0.00000, 0.750, 0.00000
0.760, 0.00000, 0.770, 0.00000, 0.780, 0.00000, 0.790, 0.00000
0.800, 0.00000, 0.810, 0.00000, 0.820, 0.00000, 0.830, 0.00000
0.840, 0.00000, 0.850, 0.00000, 0.860, 0.00000, 0.870, 0.00000
0.880, 0.00000, 0.890, 0.00000, 0.900, 0.00000, 0.910, 0.00000
0.920, 0.00000, 0.930, 0.00000, 0.940, 0.00000, 0.950, 0.00000
0.960, 0.00000, 0.970, 0.00000, 0.980, 0.00000, 0.990, 0.00000
1.000, 0.00000, 1.010, 0.00000, 1.020, 0.00000, 1.030, 0.00000
1.040, 0.00000, 1.050, 0.00000, 1.060, 0.00000, 1.070, 0.00000
1.080, 0.00000, 1.090, 0.00000, 1.100, 0.00000, 1.110, 0.00000
1.120, 0.00000, 1.130, 0.00000, 1.140, 0.00000, 1.150, 0.00000
1.160, 0.00000, 1.170, 0.00000, 1.180, 0.00000, 1.190, 0.00000
1.200, 0.00000, 1.210, 0.00000, 1.220, 0.00000, 1.230, 0.00000
1.240, 0.00000, 1.250, 0.00000, 1.260, 0.00000, 1.270, 0.00000
1.280, 0.00000, 1.290, 0.00000, 1.300, 0.00000, 1.310, 0.00000
1.320, 0.00000, 1.330, 0.00000, 1.340, 0.00000, 1.350, 0.00000
1.360, 0.00000, 1.370, 0.00000, 1.380, 0.00000, 1.390, 0.00000
1.400, 0.00000, 1.410, 0.00000, 1.420, 0.00000, 1.430, 0.00000
1.440, 0.00000, 1.450, 0.00000, 1.460, 0.00000, 1.470, 0.00000
1.480, 0.00000, 1.490, 0.00000, 1.500, 0.00000, 1.510, 0.00000
1.520, 0.00000, 1.530, 0.00000, 1.540, 0.00000, 1.550, 0.00000
1.560, 0.00000, 1.570, 0.00000, 1.580, 0.00000, 1.590, 0.00000
1.600, 0.00000, 1.610, 0.00000, 1.620, 0.00000, 1.630, 0.00000
1.640, 0.00000, 1.650, 0.00000, 1.660, 0.00000, 1.670, 0.00000
1.680, 0.00000, 1.690, 0.00000, 1.700, 0.00000, 1.710, 0.00000
1.720, 0.00000, 1.730, 0.00000, 1.740, 0.00000, 1.750, 0.00000
1.760, 0.00000, 1.770, 0.00000, 1.780, 0.00000, 1.790, 0.00000
1.800, 0.00000, 1.810, 0.00000, 1.820, 0.00000, 1.830, 0.00000
1.840, 0.00000, 1.850, 0.00000, 1.860, 0.00000, 1.870, 0.00000
1.880, 0.00000, 1.890, 0.00000, 1.900, 0.00000, 1.910, 0.00000
1.920, 0.00000, 1.930, 0.00000, 1.940, 0.00000, 1.950, 0.00000
1.960, 0.00000, 1.970, 0.00000, 1.980, 0.00000, 1.990, 0.00000
2.000, 0.00000, 2.010, 1126.28431, 2.020, 2252.56862, 2.030, 3378.85292
2.040, 4505.13723, 2.050, 5631.42154, 2.060, 5349.85046, 2.070, 5068.27939
2.080, 4786.70831, 2.090, 4505.13723, 2.100, 4223.56616, 2.110, 3941.99508
2.120, 3660.42400, 2.130, 3378.85292, 2.140, 3097.28185, 2.150, 2815.71077
2.160, 2534.13969, 2.170, 2252.56862, 2.180, 1970.99754, 2.190, 1689.42646
2.200, 1407.85539, 2.210, 1126.28431, 2.220, 844.71323, 2.230, 563.14215
2.240, 281.57108, 2.250, 0.00000, 2.260, 0.00000, 2.270, 0.00000
2.280, 0.00000, 2.290, 0.00000, 2.300, 0.00000, 2.310, 0.00000
2.320, 0.00000, 2.330, 0.00000, 2.340, 0.00000, 2.350, 0.00000
2.360, 0.00000, 2.370, 0.00000, 2.380, 0.00000, 2.390, 0.00000
2.400, 0.00000, 2.410, 0.00000, 2.420, 0.00000, 2.430, 0.00000
2.440, 0.00000, 2.450, 0.00000, 2.460, 0.00000, 2.470, 0.00000
2.480, 0.00000, 2.490, 0.00000, 2.500, 0.00000, 2.510, 0.00000
2.520, 0.00000, 2.530, 0.00000, 2.540, 0.00000, 2.550, 0.00000
2.560, 0.00000, 2.570, 0.00000, 2.580, 0.00000, 2.590, 0.00000
2.600, 0.00000, 2.610, 0.00000, 2.620, 0.00000, 2.630, 0.00000
2.640, 0.00000, 2.650, 0.00000, 2.660, 0.00000, 2.670, 0.00000
2.680, 0.00000, 2.690, 0.00000, 2.700, 0.00000, 2.710, 0.00000
2.720, 0.00000, 2.730, 0.00000, 2.740, 0.00000, 2.750, 0.00000
2.760, 0.00000, 2.770, 0.00000, 2.780, 0.00000, 2.790, 0.00000
2.800, 0.00000, 2.810, 0.00000, 2.820, 0.00000, 2.830, 0.00000
2.840, 0.00000, 2.850, 0.00000, 2.860, 0.00000, 2.870, 0.00000
2.880, 0.00000, 2.890, 0.00000, 2.900, 0.00000, 2.910, 0.00000
2.920, 0.00000, 2.930, 0.00000, 2.940, 0.00000, 2.950, 0.00000
2.960, 0.00000, 2.970, 0.00000, 2.980, 0.00000, 2.990, 0.00000
3.000, 0.00000, 3.010, 0.00000, 3.020, 0.00000, 3.030, 0.00000
3.040, 0.00000, 3.050, 0.00000, 3.060, 0.00000, 3.070, 0.00000
3.080, 0.00000, 3.090, 0.00000, 3.100, 0.00000, 3.110, 0.00000
3.120, 0.00000, 3.130, 0.00000, 3.140, 0.00000, 3.150, 0.00000
3.160, 0.00000, 3.170, 0.00000, 3.180, 0.00000, 3.190, 0.00000
3.200, 0.00000, 3.210, 0.00000, 3.220, 0.00000, 3.230, 0.00000
3.240, 0.00000, 3.250, 0.00000, 3.260, 0.00000, 3.270, 0.00000
3.280, 0.00000, 3.290, 0.00000, 3.300, 0.00000, 3.310, 0.00000
3.320, 0.00000, 3.330, 0.00000, 3.340, 0.00000, 3.350, 0.00000
3.360, 0.00000, 3.370, 0.00000, 3.380, 0.00000, 3.390, 0.00000
3.400, 0.00000, 3.410, 0.00000, 3.420, 0.00000, 3.430, 0.00000
3.440, 0.00000, 3.450, 0.00000, 3.460, 0.00000, 3.470, 0.00000
3.480, 0.00000, 3.490, 0.00000, 3.500, 0.00000, 3.510, 0.00000
3.520, 0.00000, 3.530, 0.00000, 3.540, 0.00000, 3.550, 0.00000
3.560, 0.00000, 3.570, 0.00000, 3.580, 0.00000, 3.590, 0.00000
3.600, 0.00000, 3.610, 0.00000, 3.620, 0.00000, 3.630, 0.00000
3.640, 0.00000, 3.650, 0.00000, 3.660, 0.00000, 3.670, 0.00000
3.680, 0.00000, 3.690, 0.00000, 3.700, 0.00000, 3.710, 0.00000
3.720, 0.00000, 3.730, 0.00000, 3.740, 0.00000, 3.750, 0.00000
3.760, 0.00000, 3.770, 0.00000, 3.780, 0.00000, 3.790, 0.00000
3.800, 0.00000, 3.810, 0.00000, 3.820, 0.00000, 3.830, 0.00000
3.840, 0.00000, 3.850, 0.00000, 3.860, 0.00000, 3.870, 0.00000
3.880, 0.00000, 3.890, 0.00000, 3.900, 0.00000, 3.910, 0.00000
3.920, 0.00000, 3.930, 0.00000, 3.940, 0.00000, 3.950, 0.00000
3.960, 0.00000, 3.970, 0.00000, 3.980, 0.00000, 3.990, 0.00000
4.000, 0.00000, 4.010, 1121.31364, 4.020, 2242.62727, 4.030, 3363.94091
4.040, 4485.25455, 4.050, 5606.56818, 4.060, 5326.23977, 4.070, 5045.91136
4.080, 4765.58295, 4.090, 4485.25455, 4.100, 4204.92614, 4.110, 3924.59773
4.120, 3644.26932, 4.130, 3363.94091, 4.140, 3083.61250, 4.150, 2803.28409
4.160, 2522.95568, 4.170, 2242.62727, 4.180, 1962.29886, 4.190, 1681.97045
4.200, 1401.64205, 4.210, 1121.31364, 4.220, 840.98523, 4.230, 560.65682
4.240, 280.32841, 4.250, 0.00000, 4.260, 0.00000, 4.270, 0.00000
4.280, 0.00000, 4.290, 0.00000, 4.300, 0.00000, 4.310, 0.00000
4.320, 0.00000, 4.330, 0.00000, 4.340, 0.00000, 4.350, 0.00000
4.360, 0.00000, 4.370, 0.00000, 4.380, 0.00000, 4.390, 0.00000
4.400, 0.00000, 4.410, 0.00000, 4.420, 0.00000, 4.430, 0.00000
4.440, 0.00000, 4.450, 0.00000, 4.460, 0.00000, 4.470, 0.00000
4.480, 0.00000, 4.490, 0.00000, 4.500, 0.00000, 4.510, 0.00000
4.520, 0.00000, 4.530, 0.00000, 4.540, 0.00000, 4.550, 0.00000
4.560, 0.00000, 4.570, 0.00000, 4.580, 0.00000, 4.590, 0.00000
4.600, 0.00000, 4.610, 0.00000, 4.620, 0.00000, 4.630, 0.00000
4.640, 0.00000, 4.650, 0.00000, 4.660, 0.00000, 4.670, 0.00000
4.680, 0.00000, 4.690, 0.00000, 4.700, 0.00000, 4.710, 0.00000
4.720, 0.00000, 4.730, 0.00000, 4.740, 0.00000, 4.750, 0.00000
4.760, 0.00000, 4.770, 0.00000, 4.780, 0.00000, 4.790, 0.00000
4.800, 0.00000, 4.810, 0.00000, 4.820, 0.00000, 4.830, 0.00000
4.840, 0.00000, 4.850, 0.00000, 4.860, 0.00000, 4.870, 0.00000
4.880, 0.00000, 4.890, 0.00000, 4.900, 0.00000, 4.910, 0.00000
4.920, 0.00000, 4.930, 0.00000, 4.940, 0.00000, 4.950, 0.00000
4.960, 0.00000, 4.970, 0.00000, 4.980, 0.00000, 4.990, 0.00000
5.000, 0.00000, 5.010, 0.00000, 5.020, 0.00000, 5.030, 0.00000
5.040, 0.00000, 5.050, 0.00000, 5.060, 0.00000, 5.070, 0.00000
5.080, 0.00000, 5.090, 0.00000, 5.100, 0.00000, 5.110, 0.00000
5.120, 0.00000, 5.130, 0.00000, 5.140, 0.00000, 5.150, 0.00000
5.160, 0.00000, 5.170, 0.00000, 5.180, 0.00000, 5.190, 0.00000
5.200, 0.00000, 5.210, 0.00000, 5.220, 0.00000, 5.230, 0.00000
5.240, 0.00000, 5.250, 0.00000, 5.260, 0.00000, 5.270, 0.00000
5.280, 0.00000, 5.290, 0.00000, 5.300, 0.00000, 5.310, 0.00000
5.320, 0.00000, 5.330, 0.00000, 5.340, 0.00000, 5.350, 0.00000
5.360, 0.00000, 5.370, 0.00000, 5.380, 0.00000, 5.390, 0.00000
5.400, 0.00000, 5.410, 0.00000, 5.420, 0.00000, 5.430, 0.00000
5.440, 0.00000, 5.450, 0.00000, 5.460, 0.00000, 5.470, 0.00000
5.480, 0.00000, 5.490, 0.00000, 5.500, 0.00000, 5.510, 0.00000
5.520, 0.00000, 5.530, 0.00000, 5.540, 0.00000, 5.550, 0.00000
5.560, 0.00000, 5.570, 0.00000, 5.580, 0.00000, 5.590, 0.00000
5.600, 0.00000, 5.610, 0.00000, 5.620, 0.00000, 5.630, 0.00000
5.640, 0.00000, 5.650, 0.00000, 5.660, 0.00000, 5.670, 0.00000
5.680, 0.00000, 5.690, 0.00000, 5.700, 0.00000, 5.710, 0.00000
5.720, 0.00000, 5.730, 0.00000, 5.740, 0.00000, 5.750, 0.00000
5.760, 0.00000, 5.770, 0.00000, 5.780, 0.00000, 5.790, 0.00000
5.800, 0.00000, 5.810, 0.00000, 5.820, 0.00000, 5.830, 0.00000
5.840, 0.00000, 5.850, 0.00000, 5.860, 0.00000, 5.870, 0.00000
5.880, 0.00000, 5.890, 0.00000, 5.900, 0.00000, 5.910, 0.00000
5.920, 0.00000, 5.930, 0.00000, 5.940, 0.00000, 5.950, 0.00000
5.960, 0.00000, 5.970, 0.00000, 5.980, 0.00000, 5.990, 0.00000
6.000, 0.00000, 6.010, 1115.46897, 6.020, 2230.93793, 6.030, 3346.40690
6.040, 4461.87587, 6.050, 5577.34483, 6.060, 5298.47759, 6.070, 5019.61035
6.080, 4740.74311, 6.090, 4461.87587, 6.100, 4183.00863, 6.110, 3904.14138
6.120, 3625.27414, 6.130, 3346.40690, 6.140, 3067.53966, 6.150, 2788.67242
6.160, 2509.80518, 6.170, 2230.93793, 6.180, 1952.07069, 6.190, 1673.20345
6.200, 1394.33621, 6.210, 1115.46897, 6.220, 836.60173, 6.230, 557.73448
6.240, 278.86724, 6.250, 0.00000, 6.260, 0.00000, 6.270, 0.00000
6.280, 0.00000, 6.290, 0.00000, 6.300, 0.00000, 6.310, 0.00000
6.320, 0.00000, 6.330, 0.00000, 6.340, 0.00000, 6.350, 0.00000
6.360, 0.00000, 6.370, 0.00000, 6.380, 0.00000, 6.390, 0.00000
6.400, 0.00000, 6.410, 0.00000, 6.420, 0.00000, 6.430, 0.00000
6.440, 0.00000, 6.450, 0.00000, 6.460, 0.00000, 6.470, 0.00000
6.480, 0.00000, 6.490, 0.00000, 6.500, 0.00000, 6.510, 0.00000
6.520, 0.00000, 6.530, 0.00000, 6.540, 0.00000, 6.550, 0.00000
6.560, 0.00000, 6.570, 0.00000, 6.580, 0.00000, 6.590, 0.00000
6.600, 0.00000, 6.610, 0.00000, 6.620, 0.00000, 6.630, 0.00000
6.640, 0.00000, 6.650, 0.00000, 6.660, 0.00000, 6.670, 0.00000
6.680, 0.00000, 6.690, 0.00000, 6.700, 0.00000, 6.710, 0.00000
6.720, 0.00000, 6.730, 0.00000, 6.740, 0.00000, 6.750, 0.00000
6.760, 0.00000, 6.770, 0.00000, 6.780, 0.00000, 6.790, 0.00000
6.800, 0.00000, 6.810, 0.00000, 6.820, 0.00000, 6.830, 0.00000
6.840, 0.00000, 6.850, 0.00000, 6.860, 0.00000, 6.870, 0.00000
6.880, 0.00000, 6.890, 0.00000, 6.900, 0.00000, 6.910, 0.00000
6.920, 0.00000, 6.930, 0.00000, 6.940, 0.00000, 6.950, 0.00000
6.960, 0.00000, 6.970, 0.00000, 6.980, 0.00000, 6.990, 0.00000
7.000, 0.00000, 7.010, 0.00000, 7.020, 0.00000, 7.030, 0.00000
7.040, 0.00000, 7.050, 0.00000, 7.060, 0.00000, 7.070, 0.00000
7.080, 0.00000, 7.090, 0.00000, 7.100, 0.00000, 7.110, 0.00000
7.120, 0.00000, 7.130, 0.00000, 7.140, 0.00000, 7.150, 0.00000
7.160, 0.00000, 7.170, 0.00000, 7.180, 0.00000, 7.190, 0.00000
7.200, 0.00000, 7.210, 0.00000, 7.220, 0.00000, 7.230, 0.00000
7.240, 0.00000, 7.250, 0.00000, 7.260, 0.00000, 7.270, 0.00000
7.280, 0.00000, 7.290, 0.00000, 7.300, 0.00000, 7.310, 0.00000
7.320, 0.00000, 7.330, 0.00000, 7.340, 0.00000, 7.350, 0.00000
7.360, 0.00000, 7.370, 0.00000, 7.380, 0.00000, 7.390, 0.00000
7.400, 0.00000, 7.410, 0.00000, 7.420, 0.00000, 7.430, 0.00000
7.440, 0.00000, 7.450, 0.00000, 7.460, 0.00000, 7.470, 0.00000
7.480, 0.00000, 7.490, 0.00000, 7.500, 0.00000, 7.510, 0.00000
7.520, 0.00000, 7.530, 0.00000, 7.540, 0.00000, 7.550, 0.00000
7.560, 0.00000, 7.570, 0.00000, 7.580, 0.00000, 7.590, 0.00000
7.600, 0.00000, 7.610, 0.00000, 7.620, 0.00000, 7.630, 0.00000
7.640, 0.00000, 7.650, 0.00000, 7.660, 0.00000, 7.670, 0.00000
7.680, 0.00000, 7.690, 0.00000, 7.700, 0.00000, 7.710, 0.00000
7.720, 0.00000, 7.730, 0.00000, 7.740, 0.00000, 7.750, 0.00000
7.760, 0.00000, 7.770, 0.00000, 7.780, 0.00000, 7.790, 0.00000
7.800, 0.00000, 7.810, 0.00000, 7.820, 0.00000, 7.830, 0.00000
7.840, 0.00000, 7.850, 0.00000, 7.860, 0.00000, 7.870, 0.00000
7.880, 0.00000, 7.890, 0.00000, 7.900, 0.00000, 7.910, 0.00000
7.920, 0.00000, 7.930, 0.00000, 7.940, 0.00000, 7.950, 0.00000
7.960, 0.00000, 7.970, 0.00000, 7.980, 0.00000, 7.990, 0.00000
8.000, 0.00000, 8.010, 1109.42933, 8.020, 2218.85866, 8.030, 3328.28800
8.040, 4437.71733, 8.050, 5547.14666, 8.060, 5269.78933, 8.070, 4992.43200
8.080, 4715.07466, 8.090, 4437.71733, 8.100, 4160.36000, 8.110, 3883.00266
8.120, 3605.64533, 8.130, 3328.28800, 8.140, 3050.93066, 8.150, 2773.57333
8.160, 2496.21600, 8.170, 2218.85866, 8.180, 1941.50133, 8.190, 1664.14400
8.200, 1386.78667, 8.210, 1109.42933, 8.220, 832.07200, 8.230, 554.71467
8.240, 277.35733, 8.250, 0.00000, 8.260, 0.00000, 8.270, 0.00000
8.280, 0.00000, 8.290, 0.00000, 8.300, 0.00000, 8.310, 0.00000
8.320, 0.00000, 8.330, 0.00000, 8.340, 0.00000, 8.350, 0.00000
8.360, 0.00000, 8.370, 0.00000, 8.380, 0.00000, 8.390, 0.00000
8.400, 0.00000, 8.410, 0.00000, 8.420, 0.00000, 8.430, 0.00000
8.440, 0.00000, 8.450, 0.00000, 8.460, 0.00000, 8.470, 0.00000
8.480, 0.00000, 8.490, 0.00000, 8.500, 0.00000, 8.510, 0.00000
8.520, 0.00000, 8.530, 0.00000, 8.540, 0.00000, 8.550, 0.00000
8.560, 0.00000, 8.570, 0.00000, 8.580, 0.00000, 8.590, 0.00000
8.600, 0.00000, 8.610, 0.00000, 8.620, 0.00000, 8.630, 0.00000
8.640, 0.00000, 8.650, 0.00000, 8.660, 0.00000, 8.670, 0.00000
8.680, 0.00000, 8.690, 0.00000, 8.700, 0.00000, 8.710, 0.00000
8.720, 0.00000, 8.730, 0.00000, 8.740, 0.00000, 8.750, 0.00000
8.760, 0.00000, 8.770, 0.00000, 8.780, 0.00000, 8.790, 0.00000
8.800, 0.00000, 8.810, 0.00000, 8.820, 0.00000, 8.830, 0.00000
8.840, 0.00000, 8.850, 0.00000, 8.860, 0.00000, 8.870, 0.00000
8.880, 0.00000, 8.890, 0.00000, 8.900, 0.00000, 8.910, 0.00000
8.920, 0.00000, 8.930, 0.00000, 8.940, 0.00000, 8.950, 0.00000
8.960, 0.00000, 8.970, 0.00000, 8.980, 0.00000, 8.990, 0.00000
9.000, 0.00000, 9.010, 0.00000, 9.020, 0.00000, 9.030, 0.00000
9.040, 0.00000, 9.050, 0.00000, 9.060, 0.00000, 9.070, 0.00000
9.080, 0.00000, 9.090, 0.00000, 9.100, 0.00000, 9.110, 0.00000
9.120, 0.00000, 9.130, 0.00000, 9.140, 0.00000, 9.150, 0.00000
9.160, 0.00000, 9.170, 0.00000, 9.180, 0.00000, 9.190, 0.00000
9.200, 0.00000, 9.210, 0.00000, 9.220, 0.00000, 9.230, 0.00000
9.240, 0.00000, 9.250, 0.00000, 9.260, 0.00000, 9.270, 0.00000
9.280, 0.00000, 9.290, 0.00000, 9.300, 0.00000, 9.310, 0.00000
9.320, 0.00000, 9.330, 0.00000, 9.340, 0.00000, 9.350, 0.00000
9.360, 0.00000, 9.370, 0.00000, 9.380, 0.00000, 9.390, 0.00000
9.400, 0.00000, 9.410, 0.00000, 9.420, 0.00000, 9.430, 0.00000
9.440, 0.00000, 9.450, 0.00000, 9.460, 0.00000, 9.470, 0.00000
9.480, 0.00000, 9.490, 0.00000, 9.500, 0.00000, 9.510, 0.00000
9.520, 0.00000, 9.530, 0.00000, 9.540, 0.00000, 9.550, 0.00000
9.560, 0.00000, 9.570, 0.00000, 9.580, 0.00000, 9.590, 0.00000
9.600, 0.00000, 9.610, 0.00000, 9.620, 0.00000, 9.630, 0.00000
9.640, 0.00000, 9.650, 0.00000, 9.660, 0.00000, 9.670, 0.00000
9.680, 0.00000, 9.690, 0.00000, 9.700, 0.00000, 9.710, 0.00000
9.720, 0.00000, 9.730, 0.00000, 9.740, 0.00000, 9.750, 0.00000
9.760, 0.00000, 9.770, 0.00000, 9.780, 0.00000, 9.790, 0.00000
9.800, 0.00000, 9.810, 0.00000, 9.820, 0.00000, 9.830, 0.00000
9.840, 0.00000, 9.850, 0.00000, 9.860, 0.00000, 9.870, 0.00000
9.880, 0.00000, 9.890, 0.00000, 9.900, 0.00000, 9.910, 0.00000
9.920, 0.00000, 9.930, 0.00000, 9.940, 0.00000, 9.950, 0.00000
9.960, 0.00000, 9.970, 0.00000, 9.980, 0.00000, 9.990, 0.00000
*AMPLITUDE, NAME=ROW17
0.000, 0.00000, 0.010, 501.00291, 0.020, 1002.00581, 0.030, 1503.00872
0.040, 2004.01162, 0.050, 2505.01453, 0.060, 2379.76380, 0.070, 2254.51308
0.080, 2129.26235, 0.090, 2004.01162, 0.100, 1878.76090, 0.110, 1753.51017
0.120, 1628.25945, 0.130, 1503.00872, 0.140, 1377.75799, 0.150, 1252.50727
0.160, 1127.25654, 0.170, 1002.00581, 0.180, 876.75509, 0.190, 751.50436
0.200, 626.25363, 0.210, 501.00291, 0.220, 375.75218, 0.230, 250.50145
0.240, 125.25073, 0.250, 0.00000, 0.260, 0.00000, 0.270, 0.00000
0.280, 0.00000, 0.290, 0.00000, 0.300, 0.00000, 0.310, 0.00000
0.320, 0.00000, 0.330, 0.00000, 0.340, 0.00000, 0.350, 0.00000
0.360, 0.00000, 0.370, 0.00000, 0.380, 0.00000, 0.390, 0.00000
0.400, 0.00000, 0.410, 0.00000, 0.420, 0.00000, 0.430, 0.00000
0.440, 0.00000, 0.450, 0.00000, 0.460, 0.00000, 0.470, 0.00000
0.480, 0.00000, 0.490, 0.00000, 0.500, 0.00000, 0.510, 0.00000
0.520, 0.00000, 0.530, 0.00000, 0.540, 0.00000, 0.550, 0.00000
0.560, 0.00000, 0.570, 0.00000, 0.580, 0.00000, 0.590, 0.00000
0.600, 0.00000, 0.610, 0.00000, 0.620, 0.00000, 0.630, 0.00000
0.640, 0.00000, 0.650, 0.00000, 0.660, 0.00000, 0.670, 0.00000
0.680, 0.00000, 0.690, 0.00000, 0.700, 0.00000, 0.710, 0.00000
0.720, 0.00000, 0.730, 0.00000, 0.740, 0.00000, 0.750, 0.00000
0.760, 0.00000, 0.770, 0.00000, 0.780, 0.00000, 0.790, 0.00000
0.800, 0.00000, 0.810, 0.00000, 0.820, 0.00000, 0.830, 0.00000
0.840, 0.00000, 0.850, 0.00000, 0.860, 0.00000, 0.870, 0.00000
0.880, 0.00000, 0.890, 0.00000, 0.900, 0.00000, 0.910, 0.00000
0.920, 0.00000, 0.930, 0.00000, 0.940, 0.00000, 0.950, 0.00000
0.960, 0.00000, 0.970, 0.00000, 0.980, 0.00000, 0.990, 0.00000
1.000, 0.00000, 1.010, 0.00000, 1.020, 0.00000, 1.030, 0.00000
1.040, 0.00000, 1.050, 0.00000, 1.060, 0.00000, 1.070, 0.00000
1.080, 0.00000, 1.090, 0.00000, 1.100, 0.00000, 1.110, 0.00000
1.120, 0.00000, 1.130, 0.00000, 1.140, 0.00000, 1.150, 0.00000
1.160, 0.00000, 1.170, 0.00000, 1.180, 0.00000, 1.190, 0.00000
1.200, 0.00000, 1.210, 0.00000, 1.220, 0.00000, 1.230, 0.00000
1.240, 0.00000, 1.250, 0.00000, 1.260, 0.00000, 1.270, 0.00000
1.280, 0.00000, 1.290, 0.00000, 1.300, 0.00000, 1.310, 0.00000
1.320, 0.00000, 1.330, 0.00000, 1.340, 0.00000, 1.350, 0.00000
1.360, 0.00000, 1.370, 0.00000, 1.380, 0.00000, 1.390, 0.00000
1.400, 0.00000, 1.410, 0.00000, 1.420, 0.00000, 1.430, 0.00000
1.440, 0.00000, 1.450, 0.00000, 1.460, 0.00000, 1.470, 0.00000
1.480, 0.00000, 1.490, 0.00000, 1.500, 0.00000, 1.510, 0.00000
1.520, 0.00000, 1.530, 0.00000, 1.540, 0.00000, 1.550, 0.00000
1.560, 0.00000, 1.570, 0.00000, 1.580, 0.00000, 1.590, 0.00000
1.600, 0.00000, 1.610, 0.00000, 1.620, 0.00000, 1.630, 0.00000
1.640, 0.00000, 1.650, 0.00000, 1.660, 0.00000, 1.670, 0.00000
1.680, 0.00000, 1.690, 0.00000, 1.700, 0.00000, 1.710, 0.00000
1.720, 0.00000, 1.730, 0.00000, 1.740, 0.00000, 1.750, 0.00000
1.760, 0.00000, 1.770, 0.00000, 1.780, 0.00000, 1.790, 0.00000
1.800, 0.00000, 1.810, 0.00000, 1.820, 0.00000, 1.830, 0.00000
1.840, 0.00000, 1.850, 0.00000, 1.860, 0.00000, 1.870, 0.00000
1.880, 0.00000, 1.890, 0.00000, 1.900, 0.00000, 1.910, 0.00000
1.920, 0.00000, 1.930, 0.00000, 1.940, 0.00000, 1.950, 0.00000
1.960, 0.00000, 1.970, 0.00000, 1.980, 0.00000, 1.990, 0.00000
2.000, 0.00000, 2.010, 500.49677, 2.020, 1000.99355, 2.030, 1501.49032
2.040, 2001.98709, 2.050, 2502.48387, 2.060, 2377.35967, 2.070, 2252.23548
2.080, 2127.11129, 2.090, 2001.98709, 2.100, 1876.86290, 2.110, 1751.73871
2.120, 1626.61451, 2.130, 1501.49032, 2.140, 1376.36613, 2.150, 1251.24193
2.160, 1126.11774, 2.170, 1000.99355, 2.180, 875.86935, 2.190, 750.74516
2.200, 625.62097, 2.210, 500.49677, 2.220, 375.37258, 2.230, 250.24839
2.240, 125.12419, 2.250, 0.00000, 2.260, 0.00000, 2.270, 0.00000
2.280, 0.00000, 2.290, 0.00000, 2.300, 0.00000, 2.310, 0.00000
2.320, 0.00000, 2.330, 0.00000, 2.340, 0.00000, 2.350, 0.00000
2.360, 0.00000, 2.370, 0.00000, 2.380, 0.00000, 2.390, 0.00000
2.400, 0.00000, 2.410, 0.00000, 2.420, 0.00000, 2.430, 0.00000
2.440, 0.00000, 2.450, 0.00000, 2.460, 0.00000, 2.470, 0.00000
2.480, 0.00000, 2.490, 0.00000, 2.500, 0.00000, 2.510, 0.00000
2.520, 0.00000, 2.530, 0.00000, 2.540, 0.00000, 2.550, 0.00000
2.560, 0.00000, 2.570, 0.00000, 2.580, 0.00000, 2.590, 0.00000
2.600, 0.00000, 2.610, 0.00000, 2.620, 0.00000, 2.630, 0.00000
2.640, 0.00000, 2.650, 0.00000, 2.660, 0.00000, 2.670, 0.00000
2.680, 0.00000, 2.690, 0.00000, 2.700, 0.00000, 2.710, 0.00000
2.720, 0.00000, 2.730, 0.00000, 2.740, 0.00000, 2.750, 0.00000
2.760, 0.00000, 2.770, 0.00000, 2.780, 0.00000, 2.790, 0.00000
2.800, 0.00000, 2.810, 0.00000, 2.820, 0.00000, 2.830, 0.00000
2.840, 0.00000, 2.850, 0.00000, 2.860, 0.00000, 2.870, 0.00000
2.880, 0.00000, 2.890, 0.00000, 2.900, 0.00000, 2.910, 0.00000
2.920, 0.00000, 2.930, 0.00000, 2.940, 0.00000, 2.950, 0.00000
2.960, 0.00000, 2.970, 0.00000, 2.980, 0.00000, 2.990, 0.00000
3.000, 0.00000, 3.010, 0.00000, 3.020, 0.00000, 3.030, 0.00000
3.040, 0.00000, 3.050, 0.00000, 3.060, 0.00000, 3.070, 0.00000
3.080, 0.00000, 3.090, 0.00000, 3.100, 0.00000, 3.110, 0.00000
3.120, 0.00000, 3.130, 0.00000, 3.140, 0.00000, 3.150, 0.00000
3.160, 0.00000, 3.170, 0.00000, 3.180, 0.00000, 3.190, 0.00000
3.200, 0.00000, 3.210, 0.00000, 3.220, 0.00000, 3.230, 0.00000
3.240, 0.00000, 3.250, 0.00000, 3.260, 0.00000, 3.270, 0.00000
3.280, 0.00000, 3.290, 0.00000, 3.300, 0.00000, 3.310, 0.00000
3.320, 0.00000, 3.330, 0.00000, 3.340, 0.00000, 3.350, 0.00000
3.360, 0.00000, 3.370, 0.00000, 3.380, 0.00000, 3.390, 0.00000
3.400, 0.00000, 3.410, 0.00000, 3.420, 0.00000, 3.430, 0.00000
3.440, 0.00000, 3.450, 0.00000, 3.460, 0.00000, 3.470, 0.00000
3.480, 0.00000, 3.490, 0.00000, 3.500, 0.00000, 3.510, 0.00000
3.520, 0.00000, 3.530, 0.00000, 3.540, 0.00000, 3.550, 0.00000
3.560, 0.00000, 3.570, 0.00000, 3.580, 0.00000, 3.590, 0.00000
3.600, 0.00000, 3.610, 0.00000, 3.620, 0.00000, 3.630, 0.00000
3.640, 0.00000, 3.650, 0.00000, 3.660, 0.00000, 3.670, 0.00000
3.680, 0.00000, 3.690, 0.00000, 3.700, 0.00000, 3.710, 0.00000
3.720, 0.00000, 3.730, 0.00000, 3.740, 0.00000, 3.750, 0.00000
3.760, 0.00000, 3.770, 0.00000, 3.780, 0.00000, 3.790, 0.00000
3.800, 0.00000, 3.810, 0.00000, 3.820, 0.00000, 3.830, 0.00000
3.840, 0.00000, 3.850, 0.00000, 3.860, 0.00000, 3.870, 0.00000
3.880, 0.00000, 3.890, 0.00000, 3.900, 0.00000, 3.910, 0.00000
3.920, 0.00000, 3.930, 0.00000, 3.940, 0.00000, 3.950, 0.00000
3.960, 0.00000, 3.970, 0.00000, 3.980, 0.00000, 3.990, 0.00000
4.000, 0.00000, 4.010, 498.28791, 4.020, 996.57583, 4.030, 1494.86374
4.040, 1993.15165, 4.050, 2491.43956, 4.060, 2366.86759, 4.070, 2242.29561
4.080, 2117.72363, 4.090, 1993.15165, 4.100, 1868.57967, 4.110, 1744.00770
4.120, 1619.43572, 4.130, 1494.86374, 4.140, 1370.29176, 4.150, 1245.71978
4.160, 1121.14780, 4.170, 996.57583, 4.180, 872.00385, 4.190, 747.43187
4.200, 622.85989, 4.210, 498.28791, 4.220, 373.71593, 4.230, 249.14396
4.240, 124.57198, 4.250, 0.00000, 4.260, 0.00000, 4.270, 0.00000
4.280, 0.00000, 4.290, 0.00000, 4.300, 0.00000, 4.310, 0.00000
4.320, 0.00000, 4.330, 0.00000, 4.340, 0.00000, 4.350, 0.00000
4.360, 0.00000, 4.370, 0.00000, 4.380, 0.00000, 4.390, 0.00000
4.400, 0.00000, 4.410, 0.00000, 4.420, 0.00000, 4.430, 0.00000
4.440, 0.00000, 4.450, 0.00000, 4.460, 0.00000, 4.470, 0.00000
4.480, 0.00000, 4.490, 0.00000, 4.500, 0.00000, 4.510, 0.00000
4.520, 0.00000, 4.530, 0.00000, 4.540, 0.00000, 4.550, 0.00000
4.560, 0.00000, 4.570, 0.00000, 4.580, 0.00000, 4.590, 0.00000
4.600, 0.00000, 4.610, 0.00000, 4.620, 0.00000, 4.630, 0.00000
4.640, 0.00000, 4.650, 0.00000, 4.660, 0.00000, 4.670, 0.00000
4.680, 0.00000, 4.690, 0.00000, 4.700, 0.00000, 4.710, 0.00000
4.720, 0.00000, 4.730, 0.00000, 4.740, 0.00000, 4.750, 0.00000
4.760, 0.00000, 4.770, 0.00000, 4.780, 0.00000, 4.790, 0.00000
4.800, 0.00000, 4.810, 0.00000, 4.820, 0.00000, 4.830, 0.00000
4.840, 0.00000, 4.850, 0.00000, 4.860, 0.00000, 4.870, 0.00000
4.880, 0.00000, 4.890, 0.00000, 4.900, 0.00000, 4.910, 0.00000
4.920, 0.00000, 4.930, 0.00000, 4.940, 0.00000, 4.950, 0.00000
4.960, 0.00000, 4.970, 0.00000, 4.980, 0.00000, 4.990, 0.00000
5.000, 0.00000, 5.010, 0.00000, 5.020, 0.00000, 5.030, 0.00000
5.040, 0.00000, 5.050, 0.00000, 5.060, 0.00000, 5.070, 0.00000
5.080, 0.00000, 5.090, 0.00000, 5.100, 0.00000, 5.110, 0.00000
5.120, 0.00000, 5.130, 0.00000, 5.140, 0.00000, 5.150, 0.00000
5.160, 0.00000, 5.170, 0.00000, 5.180, 0.00000, 5.190, 0.00000
5.200, 0.00000, 5.210, 0.00000, 5.220, 0.00000, 5.230, 0.00000
5.240, 0.00000, 5.250, 0.00000, 5.260, 0.00000, 5.270, 0.00000
5.280, 0.00000, 5.290, 0.00000, 5.300, 0.00000, 5.310, 0.00000
5.320, 0.00000, 5.330, 0.00000, 5.340, 0.00000, 5.350, 0.00000
5.360, 0.00000, 5.370, 0.00000, 5.380, 0.00000, 5.390, 0.00000
5.400, 0.00000, 5.410, 0.00000, 5.420, 0.00000, 5.430, 0.00000
5.440, 0.00000, 5.450, 0.00000, 5.460, 0.00000, 5.470, 0.00000
5.480, 0.00000, 5.490, 0.00000, 5.500, 0.00000, 5.510, 0.00000
5.520, 0.00000, 5.530, 0.00000, 5.540, 0.00000, 5.550, 0.00000
5.560, 0.00000, 5.570, 0.00000, 5.580, 0.00000, 5.590, 0.00000
5.600, 0.00000, 5.610, 0.00000, 5.620, 0.00000, 5.630, 0.00000
5.640, 0.00000, 5.650, 0.00000, 5.660, 0.00000, 5.670, 0.00000
5.680, 0.00000, 5.690, 0.00000, 5.700, 0.00000, 5.710, 0.00000
5.720, 0.00000, 5.730, 0.00000, 5.740, 0.00000, 5.750, 0.00000
5.760, 0.00000, 5.770, 0.00000, 5.780, 0.00000, 5.790, 0.00000
5.800, 0.00000, 5.810, 0.00000, 5.820, 0.00000, 5.830, 0.00000
5.840, 0.00000, 5.850, 0.00000, 5.860, 0.00000, 5.870, 0.00000
5.880, 0.00000, 5.890, 0.00000, 5.900, 0.00000, 5.910, 0.00000
5.920, 0.00000, 5.930, 0.00000, 5.940, 0.00000, 5.950, 0.00000
5.960, 0.00000, 5.970, 0.00000, 5.980, 0.00000, 5.990, 0.00000
6.000, 0.00000, 6.010, 495.69067, 6.020, 991.38133, 6.030, 1487.07200
6.040, 1982.76266, 6.050, 2478.45333, 6.060, 2354.53066, 6.070, 2230.60800
6.080, 2106.68533, 6.090, 1982.76266, 6.100, 1858.84000, 6.110, 1734.91733
6.120, 1610.99467, 6.130, 1487.07200, 6.140, 1363.14933, 6.150, 1239.22667
6.160, 1115.30400, 6.170, 991.38133, 6.180, 867.45867, 6.190, 743.53600
6.200, 619.61333, 6.210, 495.69067, 6.220, 371.76800, 6.230, 247.84533
6.240, 123.92267, 6.250, 0.00000, 6.260, 0.00000, 6.270, 0.00000
6.280, 0.00000, 6.290, 0.00000, 6.300, 0.00000, 6.310, 0.00000
6.320, 0.00000, 6.330, 0.00000, 6.340, 0.00000, 6.350, 0.00000
6.360, 0.00000, 6.370, 0.00000, 6.380, 0.00000, 6.390, 0.00000
6.400, 0.00000, 6.410, 0.00000, 6.420, 0.00000, 6.430, 0.00000
6.440, 0.00000, 6.450, 0.00000, 6.460, 0.00000, 6.470, 0.00000
6.480, 0.00000, 6.490, 0.00000, 6.500, 0.00000, 6.510, 0.00000
6.520, 0.00000, 6.530, 0.00000, 6.540, 0.00000, 6.550, 0.00000
6.560, 0.00000, 6.570, 0.00000, 6.580, 0.00000, 6.590, 0.00000
6.600, 0.00000, 6.610, 0.00000, 6.620, 0.00000, 6.630, 0.00000
6.640, 0.00000, 6.650, 0.00000, 6.660, 0.00000, 6.670, 0.00000
6.680, 0.00000, 6.690, 0.00000, 6.700, 0.00000, 6.710, 0.00000
6.720, 0.00000, 6.730, 0.00000, 6.740, 0.00000, 6.750, 0.00000
6.760, 0.00000, 6.770, 0.00000, 6.780, 0.00000, 6.790, 0.00000
6.800, 0.00000, 6.810, 0.00000, 6.820, 0.00000, 6.830, 0.00000
6.840, 0.00000, 6.850, 0.00000, 6.860, 0.00000, 6.870, 0.00000
6.880, 0.00000, 6.890, 0.00000, 6.900, 0.00000, 6.910, 0.00000
6.920, 0.00000, 6.930, 0.00000, 6.940, 0.00000, 6.950, 0.00000
6.960, 0.00000, 6.970, 0.00000, 6.980, 0.00000, 6.990, 0.00000
7.000, 0.00000, 7.010, 0.00000, 7.020, 0.00000, 7.030, 0.00000
7.040, 0.00000, 7.050, 0.00000, 7.060, 0.00000, 7.070, 0.00000
7.080, 0.00000, 7.090, 0.00000, 7.100, 0.00000, 7.110, 0.00000
7.120, 0.00000, 7.130, 0.00000, 7.140, 0.00000, 7.150, 0.00000
7.160, 0.00000, 7.170, 0.00000, 7.180, 0.00000, 7.190, 0.00000
7.200, 0.00000, 7.210, 0.00000, 7.220, 0.00000, 7.230, 0.00000
7.240, 0.00000, 7.250, 0.00000, 7.260, 0.00000, 7.270, 0.00000
7.280, 0.00000, 7.290, 0.00000, 7.300, 0.00000, 7.310, 0.00000
7.320, 0.00000, 7.330, 0.00000, 7.340, 0.00000, 7.350, 0.00000
7.360, 0.00000, 7.370, 0.00000, 7.380, 0.00000, 7.390, 0.00000
7.400, 0.00000, 7.410, 0.00000, 7.420, 0.00000, 7.430, 0.00000
7.440, 0.00000, 7.450, 0.00000, 7.460, 0.00000, 7.470, 0.00000
7.480, 0.00000, 7.490, 0.00000, 7.500, 0.00000, 7.510, 0.00000
7.520, 0.00000, 7.530, 0.00000, 7.540, 0.00000, 7.550, 0.00000
7.560, 0.00000, 7.570, 0.00000, 7.580, 0.00000, 7.590, 0.00000
7.600, 0.00000, 7.610, 0.00000, 7.620, 0.00000, 7.630, 0.00000
7.640, 0.00000, 7.650, 0.00000, 7.660, 0.00000, 7.670, 0.00000
7.680, 0.00000, 7.690, 0.00000, 7.700, 0.00000, 7.710, 0.00000
7.720, 0.00000, 7.730, 0.00000, 7.740, 0.00000, 7.750, 0.00000
7.760, 0.00000, 7.770, 0.00000, 7.780, 0.00000, 7.790, 0.00000
7.800, 0.00000, 7.810, 0.00000, 7.820, 0.00000, 7.830, 0.00000
7.840, 0.00000, 7.850, 0.00000, 7.860, 0.00000, 7.870, 0.00000
7.880, 0.00000, 7.890, 0.00000, 7.900, 0.00000, 7.910, 0.00000
7.920, 0.00000, 7.930, 0.00000, 7.940, 0.00000, 7.950, 0.00000
7.960, 0.00000, 7.970, 0.00000, 7.980, 0.00000, 7.990, 0.00000
8.000, 0.00000, 8.010, 493.00678, 8.020, 986.01356, 8.030, 1479.02034
8.040, 1972.02712, 8.050, 2465.03391, 8.060, 2341.78221, 8.070, 2218.53052
8.080, 2095.27882, 8.090, 1972.02712, 8.100, 1848.77543, 8.110, 1725.52373
8.120, 1602.27204, 8.130, 1479.02034, 8.140, 1355.76865, 8.150, 1232.51695
8.160, 1109.26526, 8.170, 986.01356, 8.180, 862.76187, 8.190, 739.51017
8.200, 616.25848, 8.210, 493.00678, 8.220, 369.75509, 8.230, 246.50339
8.240, 123.25170, 8.250, 0.00000, 8.260, 0.00000, 8.270, 0.00000
8.280, 0.00000, 8.290, 0.00000, 8.300, 0.00000, 8.310, 0.00000
8.320, 0.00000, 8.330, 0.00000, 8.340, 0.00000, 8.350, 0.00000
8.360, 0.00000, 8.370, 0.00000, 8.380, 0.00000, 8.390, 0.00000
8.400, 0.00000, 8.410, 0.00000, 8.420, 0.00000, 8.430, 0.00000
8.440, 0.00000, 8.450, 0.00000, 8.460, 0.00000, 8.470, 0.00000
8.480, 0.00000, 8.490, 0.00000, 8.500, 0.00000, 8.510, 0.00000
8.520, 0.00000, 8.530, 0.00000, 8.540, 0.00000, 8.550, 0.00000
8.560, 0.00000, 8.570, 0.00000, 8.580, 0.00000, 8.590, 0.00000
8.600, 0.00000, 8.610, 0.00000, 8.620, 0.00000, 8.630, 0.00000
8.640, 0.00000, 8.650, 0.00000, 8.660, 0.00000, 8.670, 0.00000
8.680, 0.00000, 8.690, 0.00000, 8.700, 0.00000, 8.710, 0.00000
8.720, 0.00000, 8.730, 0.00000, 8.740, 0.00000, 8.750, 0.00000
8.760, 0.00000, 8.770, 0.00000, 8.780, 0.00000, 8.790, 0.00000
8.800, 0.00000, 8.810, 0.00000, 8.820, 0.00000, 8.830, 0.00000
8.840, 0.00000, 8.850, 0.00000, 8.860, 0.00000, 8.870, 0.00000
8.880, 0.00000, 8.890, 0.00000, 8.900, 0.00000, 8.910, 0.00000
8.920, 0.00000, 8.930, 0.00000, 8.940, 0.00000, 8.950, 0.00000
8.960, 0.00000, 8.970, 0.00000, 8.980, 0.00000, 8.990, 0.00000
9.000, 0.00000, 9.010, 0.00000, 9.020, 0.00000, 9.030, 0.00000
9.040, 0.00000, 9.050, 0.00000, 9.060, 0.00000, 9.070, 0.00000
9.080, 0.00000, 9.090, 0.00000, 9.100, 0.00000, 9.110, 0.00000
9.120, 0.00000, 9.130, 0.00000, 9.140, 0.00000, 9.150, 0.00000
9.160, 0.00000, 9.170, 0.00000, 9.180, 0.00000, 9.190, 0.00000
9.200, 0.00000, 9.210, 0.00000, 9.220, 0.00000, 9.230, 0.00000
9.240, 0.00000, 9.250, 0.00000, 9.260, 0.00000, 9.270, 0.00000
9.280, 0.00000, 9.290, 0.00000, 9.300, 0.00000, 9.310, 0.00000
9.320, 0.00000, 9.330, 0.00000, 9.340, 0.00000, 9.350, 0.00000
9.360, 0.00000, 9.370, 0.00000, 9.380, 0.00000, 9.390, 0.00000
9.400, 0.00000, 9.410, 0.00000, 9.420, 0.00000, 9.430, 0.00000
9.440, 0.00000, 9.450, 0.00000, 9.460, 0.00000, 9.470, 0.00000
9.480, 0.00000, 9.490, 0.00000, 9.500, 0.00000, 9.510, 0.00000
9.520, 0.00000, 9.530, 0.00000, 9.540, 0.00000, 9.550, 0.00000
9.560, 0.00000, 9.570, 0.00000, 9.580, 0.00000, 9.590, 0.00000
9.600, 0.00000, 9.610, 0.00000, 9.620, 0.00000, 9.630, 0.00000
9.640, 0.00000, 9.650, 0.00000, 9.660, 0.00000, 9.670, 0.00000
9.680, 0.00000, 9.690, 0.00000, 9.700, 0.00000, 9.710, 0.00000
9.720, 0.00000, 9.730, 0.00000, 9.740, 0.00000, 9.750, 0.00000
9.760, 0.00000, 9.770, 0.00000, 9.780, 0.00000, 9.790, 0.00000
9.800, 0.00000, 9.810, 0.00000, 9.820, 0.00000, 9.830, 0.00000
9.840, 0.00000, 9.850, 0.00000, 9.860, 0.00000, 9.870, 0.00000
9.880, 0.00000, 9.890, 0.00000, 9.900, 0.00000, 9.910, 0.00000
9.920, 0.00000, 9.930, 0.00000, 9.940, 0.00000, 9.950, 0.00000
9.960, 0.00000, 9.970, 0.00000, 9.980, 0.00000, 9.990, 0.00000
*AMPLITUDE, NAME=ROW18
0.000, 0.00000, 0.010, 222.12584, 0.020, 444.25169, 0.030, 666.37753
0.040, 888.50337, 0.050, 1110.62922, 0.060, 1055.09776, 0.070, 999.56630
0.080, 944.03483, 0.090, 888.50337, 0.100, 832.97191, 0.110, 777.44045
0.120, 721.90899, 0.130, 666.37753, 0.140, 610.84607, 0.150, 555.31461
0.160, 499.78315, 0.170, 444.25169, 0.180, 388.72023, 0.190, 333.18877
0.200, 277.65730, 0.210, 222.12584, 0.220, 166.59438, 0.230, 111.06292
0.240, 55.53146, 0.250, 0.00000, 0.260, 0.00000, 0.270, 0.00000
0.280, 0.00000, 0.290, 0.00000, 0.300, 0.00000, 0.310, 0.00000
0.320, 0.00000, 0.330, 0.00000, 0.340, 0.00000, 0.350, 0.00000
0.360, 0.00000, 0.370, 0.00000, 0.380, 0.00000, 0.390, 0.00000
0.400, 0.00000, 0.410, 0.00000, 0.420, 0.00000, 0.430, 0.00000
0.440, 0.00000, 0.450, 0.00000, 0.460, 0.00000, 0.470, 0.00000
0.480, 0.00000, 0.490, 0.00000, 0.500, 0.00000, 0.510, 0.00000
0.520, 0.00000, 0.530, 0.00000, 0.540, 0.00000, 0.550, 0.00000
0.560, 0.00000, 0.570, 0.00000, 0.580, 0.00000, 0.590, 0.00000
0.600, 0.00000, 0.610, 0.00000, 0.620, 0.00000, 0.630, 0.00000
0.640, 0.00000, 0.650, 0.00000, 0.660, 0.00000, 0.670, 0.00000
0.680, 0.00000, 0.690, 0.00000, 0.700, 0.00000, 0.710, 0.00000
0.720, 0.00000, 0.730, 0.00000, 0.740, 0.00000, 0.750, 0.00000
0.760, 0.00000, 0.770, 0.00000, 0.780, 0.00000, 0.790, 0.00000
0.800, 0.00000, 0.810, 0.00000, 0.820, 0.00000, 0.830, 0.00000
0.840, 0.00000, 0.850, 0.00000, 0.860, 0.00000, 0.870, 0.00000
0.880, 0.00000, 0.890, 0.00000, 0.900, 0.00000, 0.910, 0.00000
0.920, 0.00000, 0.930, 0.00000, 0.940, 0.00000, 0.950, 0.00000
0.960, 0.00000, 0.970, 0.00000, 0.980, 0.00000, 0.990, 0.00000
1.000, 0.00000, 1.010, 0.00000, 1.020, 0.00000, 1.030, 0.00000
1.040, 0.00000, 1.050, 0.00000, 1.060, 0.00000, 1.070, 0.00000
1.080, 0.00000, 1.090, 0.00000, 1.100, 0.00000, 1.110, 0.00000
1.120, 0.00000, 1.130, 0.00000, 1.140, 0.00000, 1.150, 0.00000
1.160, 0.00000, 1.170, 0.00000, 1.180, 0.00000, 1.190, 0.00000
1.200, 0.00000, 1.210, 0.00000, 1.220, 0.00000, 1.230, 0.00000
1.240, 0.00000, 1.250, 0.00000, 1.260, 0.00000, 1.270, 0.00000
1.280, 0.00000, 1.290, 0.00000, 1.300, 0.00000, 1.310, 0.00000
1.320, 0.00000, 1.330, 0.00000, 1.340, 0.00000, 1.350, 0.00000
1.360, 0.00000, 1.370, 0.00000, 1.380, 0.00000, 1.390, 0.00000
1.400, 0.00000, 1.410, 0.00000, 1.420, 0.00000, 1.430, 0.00000
1.440, 0.00000, 1.450, 0.00000, 1.460, 0.00000, 1.470, 0.00000
1.480, 0.00000, 1.490, 0.00000, 1.500, 0.00000, 1.510, 0.00000
1.520, 0.00000, 1.530, 0.00000, 1.540, 0.00000, 1.550, 0.00000
1.560, 0.00000, 1.570, 0.00000, 1.580, 0.00000, 1.590, 0.00000
1.600, 0.00000, 1.610, 0.00000, 1.620, 0.00000, 1.630, 0.00000
1.640, 0.00000, 1.650, 0.00000, 1.660, 0.00000, 1.670, 0.00000
1.680, 0.00000, 1.690, 0.00000, 1.700, 0.00000, 1.710, 0.00000
1.720, 0.00000, 1.730, 0.00000, 1.740, 0.00000, 1.750, 0.00000
1.760, 0.00000, 1.770, 0.00000, 1.780, 0.00000, 1.790, 0.00000
1.800, 0.00000, 1.810, 0.00000, 1.820, 0.00000, 1.830, 0.00000
1.840, 0.00000, 1.850, 0.00000, 1.860, 0.00000, 1.870, 0.00000
1.880, 0.00000, 1.890, 0.00000, 1.900, 0.00000, 1.910, 0.00000
1.920, 0.00000, 1.930, 0.00000, 1.940, 0.00000, 1.950, 0.00000
1.960, 0.00000, 1.970, 0.00000, 1.980, 0.00000, 1.990, 0.00000
2.000, 0.00000, 2.010, 221.90144, 2.020, 443.80289, 2.030, 665.70433
2.040, 887.60577, 2.050, 1109.50722, 2.060, 1054.03186, 2.070, 998.55649
2.080, 943.08113, 2.090, 887.60577, 2.100, 832.13041, 2.110, 776.65505
2.120, 721.17969, 2.130, 665.70433, 2.140, 610.22897, 2.150, 554.75361
2.160, 499.27825, 2.170, 443.80289, 2.180, 388.32753, 2.190, 332.85216
2.200, 277.37680, 2.210, 221.90144, 2.220, 166.42608, 2.230, 110.95072
2.240, 55.47536, 2.250, 0.00000, 2.260, 0.00000, 2.270, 0.00000
2.280, 0.00000, 2.290, 0.00000, 2.300, 0.00000, 2.310, 0.00000
2.320, 0.00000, 2.330, 0.00000, 2.340, 0.00000, 2.350, 0.00000
2.360, 0.00000, 2.370, 0.00000, 2.380, 0.00000, 2.390, 0.00000
2.400, 0.00000, 2.410, 0.00000, 2.420, 0.00000, 2.430, 0.00000
2.440, 0.00000, 2.450, 0.00000, 2.460, 0.00000, 2.470, 0.00000
2.480, 0.00000, 2.490, 0.00000, 2.500, 0.00000, 2.510, 0.00000
2.520, 0.00000, 2.530, 0.00000, 2.540, 0.00000, 2.550, 0.00000
2.560, 0.00000, 2.570, 0.00000, 2.580, 0.00000, 2.590, 0.00000
2.600, 0.00000, 2.610, 0.00000, 2.620, 0.00000, 2.630, 0.00000
2.640, 0.00000, 2.650, 0.00000, 2.660, 0.00000, 2.670, 0.00000
2.680, 0.00000, 2.690, 0.00000, 2.700, 0.00000, 2.710, 0.00000
2.720, 0.00000, 2.730, 0.00000, 2.740, 0.00000, 2.750, 0.00000
2.760, 0.00000, 2.770, 0.00000, 2.780, 0.00000, 2.790, 0.00000
2.800, 0.00000, 2.810, 0.00000, 2.820, 0.00000, 2.830, 0.00000
2.840, 0.00000, 2.850, 0.00000, 2.860, 0.00000, 2.870, 0.00000
2.880, 0.00000, 2.890, 0.00000, 2.900, 0.00000, 2.910, 0.00000
2.920, 0.00000, 2.930, 0.00000, 2.940, 0.00000, 2.950, 0.00000
2.960, 0.00000, 2.970, 0.00000, 2.980, 0.00000, 2.990, 0.00000
3.000, 0.00000, 3.010, 0.00000, 3.020, 0.00000, 3.030, 0.00000
3.040, 0.00000, 3.050, 0.00000, 3.060, 0.00000, 3.070, 0.00000
3.080, 0.00000, 3.090, 0.00000, 3.100, 0.00000, 3.110, 0.00000
3.120, 0.00000, 3.130, 0.00000, 3.140, 0.00000, 3.150, 0.00000
3.160, 0.00000, 3.170, 0.00000, 3.180, 0.00000, 3.190, 0.00000
3.200, 0.00000, 3.210, 0.00000, 3.220, 0.00000, 3.230, 0.00000
3.240, 0.00000, 3.250, 0.00000, 3.260, 0.00000, 3.270, 0.00000
3.280, 0.00000, 3.290, 0.00000, 3.300, 0.00000, 3.310, 0.00000
3.320, 0.00000, 3.330, 0.00000, 3.340, 0.00000, 3.350, 0.00000
3.360, 0.00000, 3.370, 0.00000, 3.380, 0.00000, 3.390, 0.00000
3.400, 0.00000, 3.410, 0.00000, 3.420, 0.00000, 3.430, 0.00000
3.440, 0.00000, 3.450, 0.00000, 3.460, 0.00000, 3.470, 0.00000
3.480, 0.00000, 3.490, 0.00000, 3.500, 0.00000, 3.510, 0.00000
3.520, 0.00000, 3.530, 0.00000, 3.540, 0.00000, 3.550, 0.00000
3.560, 0.00000, 3.570, 0.00000, 3.580, 0.00000, 3.590, 0.00000
3.600, 0.00000, 3.610, 0.00000, 3.620, 0.00000, 3.630, 0.00000
3.640, 0.00000, 3.650, 0.00000, 3.660, 0.00000, 3.670, 0.00000
3.680, 0.00000, 3.690, 0.00000, 3.700, 0.00000, 3.710, 0.00000
3.720, 0.00000, 3.730, 0.00000, 3.740, 0.00000, 3.750, 0.00000
3.760, 0.00000, 3.770, 0.00000, 3.780, 0.00000, 3.790, 0.00000
3.800, 0.00000, 3.810, 0.00000, 3.820, 0.00000, 3.830, 0.00000
3.840, 0.00000, 3.850, 0.00000, 3.860, 0.00000, 3.870, 0.00000
3.880, 0.00000, 3.890, 0.00000, 3.900, 0.00000, 3.910, 0.00000
3.920, 0.00000, 3.930, 0.00000, 3.940, 0.00000, 3.950, 0.00000
3.960, 0.00000, 3.970, 0.00000, 3.980, 0.00000, 3.990, 0.00000
4.000, 0.00000, 4.010, 220.92212, 4.020, 441.84423, 4.030, 662.76635
4.040, 883.68847, 4.050, 1104.61059, 4.060, 1049.38006, 4.070, 994.14953
4.080, 938.91900, 4.090, 883.68847, 4.100, 828.45794, 4.110, 773.22741
4.120, 717.99688, 4.130, 662.76635, 4.140, 607.53582, 4.150, 552.30529
4.160, 497.07476, 4.170, 441.84423, 4.180, 386.61371, 4.190, 331.38318
4.200, 276.15265, 4.210, 220.92212, 4.220, 165.69159, 4.230, 110.46106
4.240, 55.23053, 4.250, 0.00000, 4.260, 0.00000, 4.270, 0.00000
4.280, 0.00000, 4.290, 0.00000, 4.300, 0.00000, 4.310, 0.00000
4.320, 0.00000, 4.330, 0.00000, 4.340, 0.00000, 4.350, 0.00000
4.360, 0.00000, 4.370, 0.00000, 4.380, 0.00000, 4.390, 0.00000
4.400, 0.00000, 4.410, 0.00000, 4.420, 0.00000, 4.430, 0.00000
4.440, 0.00000, 4.450, 0.00000, 4.460, 0.00000, 4.470, 0.00000
4.480, 0.00000, 4.490, 0.00000, 4.500, 0.00000, 4.510, 0.00000
4.520, 0.00000, 4.530, 0.00000, 4.540, 0.00000, 4.550, 0.00000
4.560, 0.00000, 4.570, 0.00000, 4.580, 0.00000, 4.590, 0.00000
4.600, 0.00000, 4.610, 0.00000, 4.620, 0.00000, 4.630, 0.00000
4.640, 0.00000, 4.650, 0.00000, 4.660, 0.00000, 4.670, 0.00000
4.680, 0.00000, 4.690, 0.00000, 4.700, 0.00000, 4.710, 0.00000
4.720, 0.00000, 4.730, 0.00000, 4.740, 0.00000, 4.750, 0.00000
4.760, 0.00000, 4.770, 0.00000, 4.780, 0.00000, 4.790, 0.00000
4.800, 0.00000, 4.810, 0.00000, 4.820, 0.00000, 4.830, 0.00000
4.840, 0.00000, 4.850, 0.00000, 4.860, 0.00000, 4.870, 0.00000
4.880, 0.00000, 4.890, 0.00000, 4.900, 0.00000, 4.910, 0.00000
4.920, 0.00000, 4.930, 0.00000, 4.940, 0.00000, 4.950, 0.00000
4.960, 0.00000, 4.970, 0.00000, 4.980, 0.00000, 4.990, 0.00000
5.000, 0.00000, 5.010, 0.00000, 5.020, 0.00000, 5.030, 0.00000
5.040, 0.00000, 5.050, 0.00000, 5.060, 0.00000, 5.070, 0.00000
5.080, 0.00000, 5.090, 0.00000, 5.100, 0.00000, 5.110, 0.00000
5.120, 0.00000, 5.130, 0.00000, 5.140, 0.00000, 5.150, 0.00000
5.160, 0.00000, 5.170, 0.00000, 5.180, 0.00000, 5.190, 0.00000
5.200, 0.00000, 5.210, 0.00000, 5.220, 0.00000, 5.230, 0.00000
5.240, 0.00000, 5.250, 0.00000, 5.260, 0.00000, 5.270, 0.00000
5.280, 0.00000, 5.290, 0.00000, 5.300, 0.00000, 5.310, 0.00000
5.320, 0.00000, 5.330, 0.00000, 5.340, 0.00000, 5.350, 0.00000
5.360, 0.00000, 5.370, 0.00000, 5.380, 0.00000, 5.390, 0.00000
5.400, 0.00000, 5.410, 0.00000, 5.420, 0.00000, 5.430, 0.00000
5.440, 0.00000, 5.450, 0.00000, 5.460, 0.00000, 5.470, 0.00000
5.480, 0.00000, 5.490, 0.00000, 5.500, 0.00000, 5.510, 0.00000
5.520, 0.00000, 5.530, 0.00000, 5.540, 0.00000, 5.550, 0.00000
5.560, 0.00000, 5.570, 0.00000, 5.580, 0.00000, 5.590, 0.00000
5.600, 0.00000, 5.610, 0.00000, 5.620, 0.00000, 5.630, 0.00000
5.640, 0.00000, 5.650, 0.00000, 5.660, 0.00000, 5.670, 0.00000
5.680, 0.00000, 5.690, 0.00000, 5.700, 0.00000, 5.710, 0.00000
5.720, 0.00000, 5.730, 0.00000, 5.740, 0.00000, 5.750, 0.00000
5.760, 0.00000, 5.770, 0.00000, 5.780, 0.00000, 5.790, 0.00000
5.800, 0.00000, 5.810, 0.00000, 5.820, 0.00000, 5.830, 0.00000
5.840, 0.00000, 5.850, 0.00000, 5.860, 0.00000, 5.870, 0.00000
5.880, 0.00000, 5.890, 0.00000, 5.900, 0.00000, 5.910, 0.00000
5.920, 0.00000, 5.930, 0.00000, 5.940, 0.00000, 5.950, 0.00000
5.960, 0.00000, 5.970, 0.00000, 5.980, 0.00000, 5.990, 0.00000
6.000, 0.00000, 6.010, 219.77060, 6.020, 439.54119, 6.030, 659.31179
6.040, 879.08238, 6.050, 1098.85298, 6.060, 1043.91033, 6.070, 988.96768
6.080, 934.02503, 6.090, 879.08238, 6.100, 824.13974, 6.110, 769.19709
6.120, 714.25444, 6.130, 659.31179, 6.140, 604.36914, 6.150, 549.42649
6.160, 494.48384, 6.170, 439.54119, 6.180, 384.59854, 6.190, 329.65589
6.200, 274.71325, 6.210, 219.77060, 6.220, 164.82795, 6.230, 109.88530
6.240, 54.94265, 6.250, 0.00000, 6.260, 0.00000, 6.270, 0.00000
6.280, 0.00000, 6.290, 0.00000, 6.300, 0.00000, 6.310, 0.00000
6.320, 0.00000, 6.330, 0.00000, 6.340, 0.00000, 6.350, 0.00000
6.360, 0.00000, 6.370, 0.00000, 6.380, 0.00000, 6.390, 0.00000
6.400, 0.00000, 6.410, 0.00000, 6.420, 0.00000, 6.430, 0.00000
6.440, 0.00000, 6.450, 0.00000, 6.460, 0.00000, 6.470, 0.00000
6.480, 0.00000, 6.490, 0.00000, 6.500, 0.00000, 6.510, 0.00000
6.520, 0.00000, 6.530, 0.00000, 6.540, 0.00000, 6.550, 0.00000
6.560, 0.00000, 6.570, 0.00000, 6.580, 0.00000, 6.590, 0.00000
6.600, 0.00000, 6.610, 0.00000, 6.620, 0.00000, 6.630, 0.00000
6.640, 0.00000, 6.650, 0.00000, 6.660, 0.00000, 6.670, 0.00000
6.680, 0.00000, 6.690, 0.00000, 6.700, 0.00000, 6.710, 0.00000
6.720, 0.00000, 6.730, 0.00000, 6.740, 0.00000, 6.750, 0.00000
6.760, 0.00000, 6.770, 0.00000, 6.780, 0.00000, 6.790, 0.00000
6.800, 0.00000, 6.810, 0.00000, 6.820, 0.00000, 6.830, 0.00000
6.840, 0.00000, 6.850, 0.00000, 6.860, 0.00000, 6.870, 0.00000
6.880, 0.00000, 6.890, 0.00000, 6.900, 0.00000, 6.910, 0.00000
6.920, 0.00000, 6.930, 0.00000, 6.940, 0.00000, 6.950, 0.00000
6.960, 0.00000, 6.970, 0.00000, 6.980, 0.00000, 6.990, 0.00000
7.000, 0.00000, 7.010, 0.00000, 7.020, 0.00000, 7.030, 0.00000
7.040, 0.00000, 7.050, 0.00000, 7.060, 0.00000, 7.070, 0.00000
7.080, 0.00000, 7.090, 0.00000, 7.100, 0.00000, 7.110, 0.00000
7.120, 0.00000, 7.130, 0.00000, 7.140, 0.00000, 7.150, 0.00000
7.160, 0.00000, 7.170, 0.00000, 7.180, 0.00000, 7.190, 0.00000
7.200, 0.00000, 7.210, 0.00000, 7.220, 0.00000, 7.230, 0.00000
7.240, 0.00000, 7.250, 0.00000, 7.260, 0.00000, 7.270, 0.00000
7.280, 0.00000, 7.290, 0.00000, 7.300, 0.00000, 7.310, 0.00000
7.320, 0.00000, 7.330, 0.00000, 7.340, 0.00000, 7.350, 0.00000
7.360, 0.00000, 7.370, 0.00000, 7.380, 0.00000, 7.390, 0.00000
7.400, 0.00000, 7.410, 0.00000, 7.420, 0.00000, 7.430, 0.00000
7.440, 0.00000, 7.450, 0.00000, 7.460, 0.00000, 7.470, 0.00000
7.480, 0.00000, 7.490, 0.00000, 7.500, 0.00000, 7.510, 0.00000
7.520, 0.00000, 7.530, 0.00000, 7.540, 0.00000, 7.550, 0.00000
7.560, 0.00000, 7.570, 0.00000, 7.580, 0.00000, 7.590, 0.00000
7.600, 0.00000, 7.610, 0.00000, 7.620, 0.00000, 7.630, 0.00000
7.640, 0.00000, 7.650, 0.00000, 7.660, 0.00000, 7.670, 0.00000
7.680, 0.00000, 7.690, 0.00000, 7.700, 0.00000, 7.710, 0.00000
7.720, 0.00000, 7.730, 0.00000, 7.740, 0.00000, 7.750, 0.00000
7.760, 0.00000, 7.770, 0.00000, 7.780, 0.00000, 7.790, 0.00000
7.800, 0.00000, 7.810, 0.00000, 7.820, 0.00000, 7.830, 0.00000
7.840, 0.00000, 7.850, 0.00000, 7.860, 0.00000, 7.870, 0.00000
7.880, 0.00000, 7.890, 0.00000, 7.900, 0.00000, 7.910, 0.00000
7.920, 0.00000, 7.930, 0.00000, 7.940, 0.00000, 7.950, 0.00000
7.960, 0.00000, 7.970, 0.00000, 7.980, 0.00000, 7.990, 0.00000
8.000, 0.00000, 8.010, 218.58066, 8.020, 437.16132, 8.030, 655.74199
8.040, 874.32265, 8.050, 1092.90331, 8.060, 1038.25815, 8.070, 983.61298
8.080, 928.96781, 8.090, 874.32265, 8.100, 819.67748, 8.110, 765.03232
8.120, 710.38715, 8.130, 655.74199, 8.140, 601.09682, 8.150, 546.45166
8.160, 491.80649, 8.170, 437.16132, 8.180, 382.51616, 8.190, 327.87099
8.200, 273.22583, 8.210, 218.58066, 8.220, 163.93550, 8.230, 109.29033
8.240, 54.64517, 8.250, 0.00000, 8.260, 0.00000, 8.270, 0.00000
8.280, 0.00000, 8.290, 0.00000, 8.300, 0.00000, 8.310, 0.00000
8.320, 0.00000, 8.330, 0.00000, 8.340, 0.00000, 8.350, 0.00000
8.360, 0.00000, 8.370, 0.00000, 8.380, 0.00000, 8.390, 0.00000
8.400, 0.00000, 8.410, 0.00000, 8.420, 0.00000, 8.430, 0.00000
8.440, 0.00000, 8.450, 0.00000, 8.460, 0.00000, 8.470, 0.00000
8.480, 0.00000, 8.490, 0.00000, 8.500, 0.00000, 8.510, 0.00000
8.520, 0.00000, 8.530, 0.00000, 8.540, 0.00000, 8.550, 0.00000
8.560, 0.00000, 8.570, 0.00000, 8.580, 0.00000, 8.590, 0.00000
8.600, 0.00000, 8.610, 0.00000, 8.620, 0.00000, 8.630, 0.00000
8.640, 0.00000, 8.650, 0.00000, 8.660, 0.00000, 8.670, 0.00000
8.680, 0.00000, 8.690, 0.00000, 8.700, 0.00000, 8.710, 0.00000
8.720, 0.00000, 8.730, 0.00000, 8.740, 0.00000, 8.750, 0.00000
8.760, 0.00000, 8.770, 0.00000, 8.780, 0.00000, 8.790, 0.00000
8.800, 0.00000, 8.810, 0.00000, 8.820, 0.00000, 8.830, 0.00000
8.840, 0.00000, 8.850, 0.00000, 8.860, 0.00000, 8.870, 0.00000
8.880, 0.00000, 8.890, 0.00000, 8.900, 0.00000, 8.910, 0.00000
8.920, 0.00000, 8.930, 0.00000, 8.940, 0.00000, 8.950, 0.00000
8.960, 0.00000, 8.970, 0.00000, 8.980, 0.00000, 8.990, 0.00000
9.000, 0.00000, 9.010, 0.00000, 9.020, 0.00000, 9.030, 0.00000
9.040, 0.00000, 9.050, 0.00000, 9.060, 0.00000, 9.070, 0.00000
9.080, 0.00000, 9.090, 0.00000, 9.100, 0.00000, 9.110, 0.00000
9.120, 0.00000, 9.130, 0.00000, 9.140, 0.00000, 9.150, 0.00000
9.160, 0.00000, 9.170, 0.00000, 9.180, 0.00000, 9.190, 0.00000
9.200, 0.00000, 9.210, 0.00000, 9.220, 0.00000, 9.230, 0.00000
9.240, 0.00000, 9.250, 0.00000, 9.260, 0.00000, 9.270, 0.00000
9.280, 0.00000, 9.290, 0.00000, 9.300, 0.00000, 9.310, 0.00000
9.320, 0.00000, 9.330, 0.00000, 9.340, 0.00000, 9.350, 0.00000
9.360, 0.00000, 9.370, 0.00000, 9.380, 0.00000, 9.390, 0.00000
9.400, 0.00000, 9.410, 0.00000, 9.420, 0.00000, 9.430, 0.00000
9.440, 0.00000, 9.450, 0.00000, 9.460, 0.00000, 9.470, 0.00000
9.480, 0.00000, 9.490, 0.00000, 9.500, 0.00000, 9.510, 0.00000
9.520, 0.00000, 9.530, 0.00000, 9.540, 0.00000, 9.550, 0.00000
9.560, 0.00000, 9.570, 0.00000, 9.580, 0.00000, 9.590, 0.00000
9.600, 0.00000, 9.610, 0.00000, 9.620, 0.00000, 9.630, 0.00000
9.640, 0.00000, 9.650, 0.00000, 9.660, 0.00000, 9.670, 0.00000
9.680, 0.00000, 9.690, 0.00000, 9.700, 0.00000, 9.710, 0.00000
9.720, 0.00000, 9.730, 0.00000, 9.740, 0.00000, 9.750, 0.00000
9.760, 0.00000, 9.770, 0.00000, 9.780, 0.00000, 9.790, 0.00000
9.800, 0.00000, 9.810, 0.00000, 9.820, 0.00000, 9.830, 0.00000
9.840, 0.00000, 9.850, 0.00000, 9.860, 0.00000, 9.870, 0.00000
9.880, 0.00000, 9.890, 0.00000, 9.900, 0.00000, 9.910, 0.00000
9.920, 0.00000, 9.930, 0.00000, 9.940, 0.00000, 9.950, 0.00000
9.960, 0.00000, 9.970, 0.00000, 9.980, 0.00000, 9.990, 0.00000
*AMPLITUDE, NAME=ROW19
0.000, 0.00000, 0.010, 98.70800, 0.020, 197.41599, 0.030, 296.12399
0.040, 394.83198, 0.050, 493.53998, 0.060, 468.86298, 0.070, 444.18598
0.080, 419.50898, 0.090, 394.83198, 0.100, 370.15498, 0.110, 345.47798
0.120, 320.80099, 0.130, 296.12399, 0.140, 271.44699, 0.150, 246.76999
0.160, 222.09299, 0.170, 197.41599, 0.180, 172.73899, 0.190, 148.06199
0.200, 123.38499, 0.210, 98.70800, 0.220, 74.03100, 0.230, 49.35400
0.240, 24.67700, 0.250, 0.00000, 0.260, 0.00000, 0.270, 0.00000
0.280, 0.00000, 0.290, 0.00000, 0.300, 0.00000, 0.310, 0.00000
0.320, 0.00000, 0.330, 0.00000, 0.340, 0.00000, 0.350, 0.00000
0.360, 0.00000, 0.370, 0.00000, 0.380, 0.00000, 0.390, 0.00000
0.400, 0.00000, 0.410, 0.00000, 0.420, 0.00000, 0.430, 0.00000
0.440, 0.00000, 0.450, 0.00000, 0.460, 0.00000, 0.470, 0.00000
0.480, 0.00000, 0.490, 0.00000, 0.500, 0.00000, 0.510, 0.00000
0.520, 0.00000, 0.530, 0.00000, 0.540, 0.00000, 0.550, 0.00000
0.560, 0.00000, 0.570, 0.00000, 0.580, 0.00000, 0.590, 0.00000
0.600, 0.00000, 0.610, 0.00000, 0.620, 0.00000, 0.630, 0.00000
0.640, 0.00000, 0.650, 0.00000, 0.660, 0.00000, 0.670, 0.00000
0.680, 0.00000, 0.690, 0.00000, 0.700, 0.00000, 0.710, 0.00000
0.720, 0.00000, 0.730, 0.00000, 0.740, 0.00000, 0.750, 0.00000
0.760, 0.00000, 0.770, 0.00000, 0.780, 0.00000, 0.790, 0.00000
0.800, 0.00000, 0.810, 0.00000, 0.820, 0.00000, 0.830, 0.00000
0.840, 0.00000, 0.850, 0.00000, 0.860, 0.00000, 0.870, 0.00000
0.880, 0.00000, 0.890, 0.00000, 0.900, 0.00000, 0.910, 0.00000
0.920, 0.00000, 0.930, 0.00000, 0.940, 0.00000, 0.950, 0.00000
0.960, 0.00000, 0.970, 0.00000, 0.980, 0.00000, 0.990, 0.00000
1.000, 0.00000, 1.010, 0.00000, 1.020, 0.00000, 1.030, 0.00000
1.040, 0.00000, 1.050, 0.00000, 1.060, 0.00000, 1.070, 0.00000
1.080, 0.00000, 1.090, 0.00000, 1.100, 0.00000, 1.110, 0.00000
1.120, 0.00000, 1.130, 0.00000, 1.140, 0.00000, 1.150, 0.00000
1.160, 0.00000, 1.170, 0.00000, 1.180, 0.00000, 1.190, 0.00000
1.200, 0.00000, 1.210, 0.00000, 1.220, 0.00000, 1.230, 0.00000
1.240, 0.00000, 1.250, 0.00000, 1.260, 0.00000, 1.270, 0.00000
1.280, 0.00000, 1.290, 0.00000, 1.300, 0.00000, 1.310, 0.00000
1.320, 0.00000, 1.330, 0.00000, 1.340, 0.00000, 1.350, 0.00000
1.360, 0.00000, 1.370, 0.00000, 1.380, 0.00000, 1.390, 0.00000
1.400, 0.00000, 1.410, 0.00000, 1.420, 0.00000, 1.430, 0.00000
1.440, 0.00000, 1.450, 0.00000, 1.460, 0.00000, 1.470, 0.00000
1.480, 0.00000, 1.490, 0.00000, 1.500, 0.00000, 1.510, 0.00000
1.520, 0.00000, 1.530, 0.00000, 1.540, 0.00000, 1.550, 0.00000
1.560, 0.00000, 1.570, 0.00000, 1.580, 0.00000, 1.590, 0.00000
1.600, 0.00000, 1.610, 0.00000, 1.620, 0.00000, 1.630, 0.00000
1.640, 0.00000, 1.650, 0.00000, 1.660, 0.00000, 1.670, 0.00000
1.680, 0.00000, 1.690, 0.00000, 1.700, 0.00000, 1.710, 0.00000
1.720, 0.00000, 1.730, 0.00000, 1.740, 0.00000, 1.750, 0.00000
1.760, 0.00000, 1.770, 0.00000, 1.780, 0.00000, 1.790, 0.00000
1.800, 0.00000, 1.810, 0.00000, 1.820, 0.00000, 1.830, 0.00000
1.840, 0.00000, 1.850, 0.00000, 1.860, 0.00000, 1.870, 0.00000
1.880, 0.00000, 1.890, 0.00000, 1.900, 0.00000, 1.910, 0.00000
1.920, 0.00000, 1.930, 0.00000, 1.940, 0.00000, 1.950, 0.00000
1.960, 0.00000, 1.970, 0.00000, 1.980, 0.00000, 1.990, 0.00000
2.000, 0.00000, 2.010, 98.60828, 2.020, 197.21655, 2.030, 295.82483
2.040, 394.43311, 2.050, 493.04138, 2.060, 468.38932, 2.070, 443.73725
2.080, 419.08518, 2.090, 394.43311, 2.100, 369.78104, 2.110, 345.12897
2.120, 320.47690, 2.130, 295.82483, 2.140, 271.17276, 2.150, 246.52069
2.160, 221.86862, 2.170, 197.21655, 2.180, 172.56448, 2.190, 147.91242
2.200, 123.26035, 2.210, 98.60828, 2.220, 73.95621, 2.230, 49.30414
2.240, 24.65207, 2.250, 0.00000, 2.260, 0.00000, 2.270, 0.00000
2.280, 0.00000, 2.290, 0.00000, 2.300, 0.00000, 2.310, 0.00000
2.320, 0.00000, 2.330, 0.00000, 2.340, 0.00000, 2.350, 0.00000
2.360, 0.00000, 2.370, 0.00000, 2.380, 0.00000, 2.390, 0.00000
2.400, 0.00000, 2.410, 0.00000, 2.420, 0.00000, 2.430, 0.00000
2.440, 0.00000, 2.450, 0.00000, 2.460, 0.00000, 2.470, 0.00000
2.480, 0.00000, 2.490, 0.00000, 2.500, 0.00000, 2.510, 0.00000
2.520, 0.00000, 2.530, 0.00000, 2.540, 0.00000, 2.550, 0.00000
2.560, 0.00000, 2.570, 0.00000, 2.580, 0.00000, 2.590, 0.00000
2.600, 0.00000, 2.610, 0.00000, 2.620, 0.00000, 2.630, 0.00000
2.640, 0.00000, 2.650, 0.00000, 2.660, 0.00000, 2.670, 0.00000
2.680, 0.00000, 2.690, 0.00000, 2.700, 0.00000, 2.710, 0.00000
2.720, 0.00000, 2.730, 0.00000, 2.740, 0.00000, 2.750, 0.00000
2.760, 0.00000, 2.770, 0.00000, 2.780, 0.00000, 2.790, 0.00000
2.800, 0.00000, 2.810, 0.00000, 2.820, 0.00000, 2.830, 0.00000
2.840, 0.00000, 2.850, 0.00000, 2.860, 0.00000, 2.870, 0.00000
2.880, 0.00000, 2.890, 0.00000, 2.900, 0.00000, 2.910, 0.00000
2.920, 0.00000, 2.930, 0.00000, 2.940, 0.00000, 2.950, 0.00000
2.960, 0.00000, 2.970, 0.00000, 2.980, 0.00000, 2.990, 0.00000
3.000, 0.00000, 3.010, 0.00000, 3.020, 0.00000, 3.030, 0.00000
3.040, 0.00000, 3.050, 0.00000, 3.060, 0.00000, 3.070, 0.00000
3.080, 0.00000, 3.090, 0.00000, 3.100, 0.00000, 3.110, 0.00000
3.120, 0.00000, 3.130, 0.00000, 3.140, 0.00000, 3.150, 0.00000
3.160, 0.00000, 3.170, 0.00000, 3.180, 0.00000, 3.190, 0.00000
3.200, 0.00000, 3.210, 0.00000, 3.220, 0.00000, 3.230, 0.00000
3.240, 0.00000, 3.250, 0.00000, 3.260, 0.00000, 3.270, 0.00000
3.280, 0.00000, 3.290, 0.00000, 3.300, 0.00000, 3.310, 0.00000
3.320, 0.00000, 3.330, 0.00000, 3.340, 0.00000, 3.350, 0.00000
3.360, 0.00000, 3.370, 0.00000, 3.380, 0.00000, 3.390, 0.00000
3.400, 0.00000, 3.410, 0.00000, 3.420, 0.00000, 3.430, 0.00000
3.440, 0.00000, 3.450, 0.00000, 3.460, 0.00000, 3.470, 0.00000
3.480, 0.00000, 3.490, 0.00000, 3.500, 0.00000, 3.510, 0.00000
3.520, 0.00000, 3.530, 0.00000, 3.540, 0.00000, 3.550, 0.00000
3.560, 0.00000, 3.570, 0.00000, 3.580, 0.00000, 3.590, 0.00000
3.600, 0.00000, 3.610, 0.00000, 3.620, 0.00000, 3.630, 0.00000
3.640, 0.00000, 3.650, 0.00000, 3.660, 0.00000, 3.670, 0.00000
3.680, 0.00000, 3.690, 0.00000, 3.700, 0.00000, 3.710, 0.00000
3.720, 0.00000, 3.730, 0.00000, 3.740, 0.00000, 3.750, 0.00000
3.760, 0.00000, 3.770, 0.00000, 3.780, 0.00000, 3.790, 0.00000
3.800, 0.00000, 3.810, 0.00000, 3.820, 0.00000, 3.830, 0.00000
3.840, 0.00000, 3.850, 0.00000, 3.860, 0.00000, 3.870, 0.00000
3.880, 0.00000, 3.890, 0.00000, 3.900, 0.00000, 3.910, 0.00000
3.920, 0.00000, 3.930, 0.00000, 3.940, 0.00000, 3.950, 0.00000
3.960, 0.00000, 3.970, 0.00000, 3.980, 0.00000, 3.990, 0.00000
4.000, 0.00000, 4.010, 98.17309, 4.020, 196.34617, 4.030, 294.51926
4.040, 392.69234, 4.050, 490.86543, 4.060, 466.32216, 4.070, 441.77888
4.080, 417.23561, 4.090, 392.69234, 4.100, 368.14907, 4.110, 343.60580
4.120, 319.06253, 4.130, 294.51926, 4.140, 269.97598, 4.150, 245.43271
4.160, 220.88944, 4.170, 196.34617, 4.180, 171.80290, 4.190, 147.25963
4.200, 122.71636, 4.210, 98.17309, 4.220, 73.62981, 4.230, 49.08654
4.240, 24.54327, 4.250, 0.00000, 4.260, 0.00000, 4.270, 0.00000
4.280, 0.00000, 4.290, 0.00000, 4.300, 0.00000, 4.310, 0.00000
4.320, 0.00000, 4.330, 0.00000, 4.340, 0.00000, 4.350, 0.00000
4.360, 0.00000, 4.370, 0.00000, 4.380, 0.00000, 4.390, 0.00000
4.400, 0.00000, 4.410, 0.00000, 4.420, 0.00000, 4.430, 0.00000
4.440, 0.00000, 4.450, 0.00000, 4.460, 0.00000, 4.470, 0.00000
4.480, 0.00000, 4.490, 0.00000, 4.500, 0.00000, 4.510, 0.00000
4.520, 0.00000, 4.530, 0.00000, 4.540, 0.00000, 4.550, 0.00000
4.560, 0.00000, 4.570, 0.00000, 4.580, 0.00000, 4.590, 0.00000
4.600, 0.00000, 4.610, 0.00000, 4.620, 0.00000, 4.630, 0.00000
4.640, 0.00000, 4.650, 0.00000, 4.660, 0.00000, 4.670, 0.00000
4.680, 0.00000, 4.690, 0.00000, 4.700, 0.00000, 4.710, 0.00000
4.720, 0.00000, 4.730, 0.00000, 4.740, 0.00000, 4.750, 0.00000
4.760, 0.00000, 4.770, 0.00000, 4.780, 0.00000, 4.790, 0.00000
4.800, 0.00000, 4.810, 0.00000, 4.820, 0.00000, 4.830, 0.00000
4.840, 0.00000, 4.850, 0.00000, 4.860, 0.00000, 4.870, 0.00000
4.880, 0.00000, 4.890, 0.00000, 4.900, 0.00000, 4.910, 0.00000
4.920, 0.00000, 4.930, 0.00000, 4.940, 0.00000, 4.950, 0.00000
4.960, 0.00000, 4.970, 0.00000, 4.980, 0.00000, 4.990, 0.00000
5.000, 0.00000, 5.010, 0.00000, 5.020, 0.00000, 5.030, 0.00000
5.040, 0.00000, 5.050, 0.00000, 5.060, 0.00000, 5.070, 0.00000
5.080, 0.00000, 5.090, 0.00000, 5.100, 0.00000, 5.110, 0.00000
5.120, 0.00000, 5.130, 0.00000, 5.140, 0.00000, 5.150, 0.00000
5.160, 0.00000, 5.170, 0.00000, 5.180, 0.00000, 5.190, 0.00000
5.200, 0.00000, 5.210, 0.00000, 5.220, 0.00000, 5.230, 0.00000
5.240, 0.00000, 5.250, 0.00000, 5.260, 0.00000, 5.270, 0.00000
5.280, 0.00000, 5.290, 0.00000, 5.300, 0.00000, 5.310, 0.00000
5.320, 0.00000, 5.330, 0.00000, 5.340, 0.00000, 5.350, 0.00000
5.360, 0.00000, 5.370, 0.00000, 5.380, 0.00000, 5.390, 0.00000
5.400, 0.00000, 5.410, 0.00000, 5.420, 0.00000, 5.430, 0.00000
5.440, 0.00000, 5.450, 0.00000, 5.460, 0.00000, 5.470, 0.00000
5.480, 0.00000, 5.490, 0.00000, 5.500, 0.00000, 5.510, 0.00000
5.520, 0.00000, 5.530, 0.00000, 5.540, 0.00000, 5.550, 0.00000
5.560, 0.00000, 5.570, 0.00000, 5.580, 0.00000, 5.590, 0.00000
5.600, 0.00000, 5.610, 0.00000, 5.620, 0.00000, 5.630, 0.00000
5.640, 0.00000, 5.650, 0.00000, 5.660, 0.00000, 5.670, 0.00000
5.680, 0.00000, 5.690, 0.00000, 5.700, 0.00000, 5.710, 0.00000
5.720, 0.00000, 5.730, 0.00000, 5.740, 0.00000, 5.750, 0.00000
5.760, 0.00000, 5.770, 0.00000, 5.780, 0.00000, 5.790, 0.00000
5.800, 0.00000, 5.810, 0.00000, 5.820, 0.00000, 5.830, 0.00000
5.840, 0.00000, 5.850, 0.00000, 5.860, 0.00000, 5.870, 0.00000
5.880, 0.00000, 5.890, 0.00000, 5.900, 0.00000, 5.910, 0.00000
5.920, 0.00000, 5.930, 0.00000, 5.940, 0.00000, 5.950, 0.00000
5.960, 0.00000, 5.970, 0.00000, 5.980, 0.00000, 5.990, 0.00000
6.000, 0.00000, 6.010, 97.66137, 6.020, 195.32275, 6.030, 292.98412
6.040, 390.64550, 6.050, 488.30687, 6.060, 463.89153, 6.070, 439.47618
6.080, 415.06084, 6.090, 390.64550, 6.100, 366.23015, 6.110, 341.81481
6.120, 317.39946, 6.130, 292.98412, 6.140, 268.56878, 6.150, 244.15343
6.160, 219.73809, 6.170, 195.32275, 6.180, 170.90740, 6.190, 146.49206
6.200, 122.07672, 6.210, 97.66137, 6.220, 73.24603, 6.230, 48.83069
6.240, 24.41534, 6.250, 0.00000, 6.260, 0.00000, 6.270, 0.00000
6.280, 0.00000, 6.290, 0.00000, 6.300, 0.00000, 6.310, 0.00000
6.320, 0.00000, 6.330, 0.00000, 6.340, 0.00000, 6.350, 0.00000
6.360, 0.00000, 6.370, 0.00000, 6.380, 0.00000, 6.390, 0.00000
6.400, 0.00000, 6.410, 0.00000, 6.420, 0.00000, 6.430, 0.00000
6.440, 0.00000, 6.450, 0.00000, 6.460, 0.00000, 6.470, 0.00000
6.480, 0.00000, 6.490, 0.00000, 6.500, 0.00000, 6.510, 0.00000
6.520, 0.00000, 6.530, 0.00000, 6.540, 0.00000, 6.550, 0.00000
6.560, 0.00000, 6.570, 0.00000, 6.580, 0.00000, 6.590, 0.00000
6.600, 0.00000, 6.610, 0.00000, 6.620, 0.00000, 6.630, 0.00000
6.640, 0.00000, 6.650, 0.00000, 6.660, 0.00000, 6.670, 0.00000
6.680, 0.00000, 6.690, 0.00000, 6.700, 0.00000, 6.710, 0.00000
6.720, 0.00000, 6.730, 0.00000, 6.740, 0.00000, 6.750, 0.00000
6.760, 0.00000, 6.770, 0.00000, 6.780, 0.00000, 6.790, 0.00000
6.800, 0.00000, 6.810, 0.00000, 6.820, 0.00000, 6.830, 0.00000
6.840, 0.00000, 6.850, 0.00000, 6.860, 0.00000, 6.870, 0.00000
6.880, 0.00000, 6.890, 0.00000, 6.900, 0.00000, 6.910, 0.00000
6.920, 0.00000, 6.930, 0.00000, 6.940, 0.00000, 6.950, 0.00000
6.960, 0.00000, 6.970, 0.00000, 6.980, 0.00000, 6.990, 0.00000
7.000, 0.00000, 7.010, 0.00000, 7.020, 0.00000, 7.030, 0.00000
7.040, 0.00000, 7.050, 0.00000, 7.060, 0.00000, 7.070, 0.00000
7.080, 0.00000, 7.090, 0.00000, 7.100, 0.00000, 7.110, 0.00000
7.120, 0.00000, 7.130, 0.00000, 7.140, 0.00000, 7.150, 0.00000
7.160, 0.00000, 7.170, 0.00000, 7.180, 0.00000, 7.190, 0.00000
7.200, 0.00000, 7.210, 0.00000, 7.220, 0.00000, 7.230, 0.00000
7.240, 0.00000, 7.250, 0.00000, 7.260, 0.00000, 7.270, 0.00000
7.280, 0.00000, 7.290, 0.00000, 7.300, 0.00000, 7.310, 0.00000
7.320, 0.00000, 7.330, 0.00000, 7.340, 0.00000, 7.350, 0.00000
7.360, 0.00000, 7.370, 0.00000, 7.380, 0.00000, 7.390, 0.00000
7.400, 0.00000, 7.410, 0.00000, 7.420, 0.00000, 7.430, 0.00000
7.440, 0.00000, 7.450, 0.00000, 7.460, 0.00000, 7.470, 0.00000
7.480, 0.00000, 7.490, 0.00000, 7.500, 0.00000, 7.510, 0.00000
7.520, 0.00000, 7.530, 0.00000, 7.540, 0.00000, 7.550, 0.00000
7.560, 0.00000, 7.570, 0.00000, 7.580, 0.00000, 7.590, 0.00000
7.600, 0.00000, 7.610, 0.00000, 7.620, 0.00000, 7.630, 0.00000
7.640, 0.00000, 7.650, 0.00000, 7.660, 0.00000, 7.670, 0.00000
7.680, 0.00000, 7.690, 0.00000, 7.700, 0.00000, 7.710, 0.00000
7.720, 0.00000, 7.730, 0.00000, 7.740, 0.00000, 7.750, 0.00000
7.760, 0.00000, 7.770, 0.00000, 7.780, 0.00000, 7.790, 0.00000
7.800, 0.00000, 7.810, 0.00000, 7.820, 0.00000, 7.830, 0.00000
7.840, 0.00000, 7.850, 0.00000, 7.860, 0.00000, 7.870, 0.00000
7.880, 0.00000, 7.890, 0.00000, 7.900, 0.00000, 7.910, 0.00000
7.920, 0.00000, 7.930, 0.00000, 7.940, 0.00000, 7.950, 0.00000
7.960, 0.00000, 7.970, 0.00000, 7.980, 0.00000, 7.990, 0.00000
8.000, 0.00000, 8.010, 97.13259, 8.020, 194.26519, 8.030, 291.39778
8.040, 388.53037, 8.050, 485.66296, 8.060, 461.37981, 8.070, 437.09667
8.080, 412.81352, 8.090, 388.53037, 8.100, 364.24722, 8.110, 339.96407
8.120, 315.68093, 8.130, 291.39778, 8.140, 267.11463, 8.150, 242.83148
8.160, 218.54833, 8.170, 194.26519, 8.180, 169.98204, 8.190, 145.69889
8.200, 121.41574, 8.210, 97.13259, 8.220, 72.84944, 8.230, 48.56630
8.240, 24.28315, 8.250, 0.00000, 8.260, 0.00000, 8.270, 0.00000
8.280, 0.00000, 8.290, 0.00000, 8.300, 0.00000, 8.310, 0.00000
8.320, 0.00000, 8.330, 0.00000, 8.340, 0.00000, 8.350, 0.00000
8.360, 0.00000, 8.370, 0.00000, 8.380, 0.00000, 8.390, 0.00000
8.400, 0.00000, 8.410, 0.00000, 8.420, 0.00000, 8.430, 0.00000
8.440, 0.00000, 8.450, 0.00000, 8.460, 0.00000, 8.470, 0.00000
8.480, 0.00000, 8.490, 0.00000, 8.500, 0.00000, 8.510, 0.00000
8.520, 0.00000, 8.530, 0.00000, 8.540, 0.00000, 8.550, 0.00000
8.560, 0.00000, 8.570, 0.00000, 8.580, 0.00000, 8.590, 0.00000
8.600, 0.00000, 8.610, 0.00000, 8.620, 0.00000, 8.630, 0.00000
8.640, 0.00000, 8.650, 0.00000, 8.660, 0.00000, 8.670, 0.00000
8.680, 0.00000, 8.690, 0.00000, 8.700, 0.00000, 8.710, 0.00000
8.720, 0.00000, 8.730, 0.00000, 8.740, 0.00000, 8.750, 0.00000
8.760, 0.00000, 8.770, 0.00000, 8.780, 0.00000, 8.790, 0.00000
8.800, 0.00000, 8.810, 0.00000, 8.820, 0.00000, 8.830, 0.00000
8.840, 0.00000, 8.850, 0.00000, 8.860, 0.00000, 8.870, 0.00000
8.880, 0.00000, 8.890, 0.00000, 8.900, 0.00000, 8.910, 0.00000
8.920, 0.00000, 8.930, 0.00000, 8.940, 0.00000, 8.950, 0.00000
8.960, 0.00000, 8.970, 0.00000, 8.980, 0.00000, 8.990, 0.00000
9.000, 0.00000, 9.010, 0.00000, 9.020, 0.00000, 9.030, 0.00000
9.040, 0.00000, 9.050, 0.00000, 9.060, 0.00000, 9.070, 0.00000
9.080, 0.00000, 9.090, 0.00000, 9.100, 0.00000, 9.110, 0.00000
9.120, 0.00000, 9.130, 0.00000, 9.140, 0.00000, 9.150, 0.00000
9.160, 0.00000, 9.170, 0.00000, 9.180, 0.00000, 9.190, 0.00000
9.200, 0.00000, 9.210, 0.00000, 9.220, 0.00000, 9.230, 0.00000
9.240, 0.00000, 9.250, 0.00000, 9.260, 0.00000, 9.270, 0.00000
9.280, 0.00000, 9.290, 0.00000, 9.300, 0.00000, 9.310, 0.00000
9.320, 0.00000, 9.330, 0.00000, 9.340, 0.00000, 9.350, 0.00000
9.360, 0.00000, 9.370, 0.00000, 9.380, 0.00000, 9.390, 0.00000
9.400, 0.00000, 9.410, 0.00000, 9.420, 0.00000, 9.430, 0.00000
9.440, 0.00000, 9.450, 0.00000, 9.460, 0.00000, 9.470, 0.00000
9.480, 0.00000, 9.490, 0.00000, 9.500, 0.00000, 9.510, 0.00000
9.520, 0.00000, 9.530, 0.00000, 9.540, 0.00000, 9.550, 0.00000
9.560, 0.00000, 9.570, 0.00000, 9.580, 0.00000, 9.590, 0.00000
9.600, 0.00000, 9.610, 0.00000, 9.620, 0.00000, 9.630, 0.00000
9.640, 0.00000, 9.650, 0.00000, 9.660, 0.00000, 9.670, 0.00000
9.680, 0.00000, 9.690, 0.00000, 9.700, 0.00000, 9.710, 0.00000
9.720, 0.00000, 9.730, 0.00000, 9.740, 0.00000, 9.750, 0.00000
9.760, 0.00000, 9.770, 0.00000, 9.780, 0.00000, 9.790, 0.00000
9.800, 0.00000, 9.810, 0.00000, 9.820, 0.00000, 9.830, 0.00000
9.840, 0.00000, 9.850, 0.00000, 9.860, 0.00000, 9.870, 0.00000
9.880, 0.00000, 9.890, 0.00000, 9.900, 0.00000, 9.910, 0.00000
9.920, 0.00000, 9.930, 0.00000, 9.940, 0.00000, 9.950, 0.00000
9.960, 0.00000, 9.970, 0.00000, 9.980, 0.00000, 9.990, 0.00000
*AMPLITUDE, NAME=ROW20
0.000, 0.00000, 0.010, 43.76341, 0.020, 87.52682, 0.030, 131.29023
0.040, 175.05364, 0.050, 218.81705, 0.060, 207.87620, 0.070, 196.93534
0.080, 185.99449, 0.090, 175.05364, 0.100, 164.11279, 0.110, 153.17193
0.120, 142.23108, 0.130, 131.29023, 0.140, 120.34938, 0.150, 109.40852
0.160, 98.46767, 0.170, 87.52682, 0.180, 76.58597, 0.190, 65.64511
0.200, 54.70426, 0.210, 43.76341, 0.220, 32.82256, 0.230, 21.88170
0.240, 10.94085, 0.250, 0.00000, 0.260, 0.00000, 0.270, 0.00000
0.280, 0.00000, 0.290, 0.00000, 0.300, 0.00000, 0.310, 0.00000
0.320, 0.00000, 0.330, 0.00000, 0.340, 0.00000, 0.350, 0.00000
0.360, 0.00000, 0.370, 0.00000, 0.380, 0.00000, 0.390, 0.00000
0.400, 0.00000, 0.410, 0.00000, 0.420, 0.00000, 0.430, 0.00000
0.440, 0.00000, 0.450, 0.00000, 0.460, 0.00000, 0.470, 0.00000
0.480, 0.00000, 0.490, 0.00000, 0.500, 0.00000, 0.510, 0.00000
0.520, 0.00000, 0.530, 0.00000, 0.540, 0.00000, 0.550, 0.00000
0.560, 0.00000, 0.570, 0.00000, 0.580, 0.00000, 0.590, 0.00000
0.600, 0.00000, 0.610, 0.00000, 0.620, 0.00000, 0.630, 0.00000
0.640, 0.00000, 0.650, 0.00000, 0.660, 0.00000, 0.670, 0.00000
0.680, 0.00000, 0.690, 0.00000, 0.700, 0.00000, 0.710, 0.00000
0.720, 0.00000, 0.730, 0.00000, 0.740, 0.00000, 0.750, 0.00000
0.760, 0.00000, 0.770, 0.00000, 0.780, 0.00000, 0.790, 0.00000
0.800, 0.00000, 0.810, 0.00000, 0.820, 0.00000, 0.830, 0.00000
0.840, 0.00000, 0.850, 0.00000, 0.860, 0.00000, 0.870, 0.00000
0.880, 0.00000, 0.890, 0.00000, 0.900, 0.00000, 0.910, 0.00000
0.920, 0.00000, 0.930, 0.00000, 0.940, 0.00000, 0.950, 0.00000
0.960, 0.00000, 0.970, 0.00000, 0.980, 0.00000, 0.990, 0.00000
1.000, 0.00000, 1.010, 0.00000, 1.020, 0.00000, 1.030, 0.00000
1.040, 0.00000, 1.050, 0.00000, 1.060, 0.00000, 1.070, 0.00000
1.080, 0.00000, 1.090, 0.00000, 1.100, 0.00000, 1.110, 0.00000
1.120, 0.00000, 1.130, 0.00000, 1.140, 0.00000, 1.150, 0.00000
1.160, 0.00000, 1.170, 0.00000, 1.180, 0.00000, 1.190, 0.00000
1.200, 0.00000, 1.210, 0.00000, 1.220, 0.00000, 1.230, 0.00000
1.240, 0.00000, 1.250, 0.00000, 1.260, 0.00000, 1.270, 0.00000
1.280, 0.00000, 1.290, 0.00000, 1.300, 0.00000, 1.310, 0.00000
1.320, 0.00000, 1.330, 0.00000, 1.340, 0.00000, 1.350, 0.00000
1.360, 0.00000, 1.370, 0.00000, 1.380, 0.00000, 1.390, 0.00000
1.400, 0.00000, 1.410, 0.00000, 1.420, 0.00000, 1.430, 0.00000
1.440, 0.00000, 1.450, 0.00000, 1.460, 0.00000, 1.470, 0.00000
1.480, 0.00000, 1.490, 0.00000, 1.500, 0.00000, 1.510, 0.00000
1.520, 0.00000, 1.530, 0.00000, 1.540, 0.00000, 1.550, 0.00000
1.560, 0.00000, 1.570, 0.00000, 1.580, 0.00000, 1.590, 0.00000
1.600, 0.00000, 1.610, 0.00000, 1.620, 0.00000, 1.630, 0.00000
1.640, 0.00000, 1.650, 0.00000, 1.660, 0.00000, 1.670, 0.00000
1.680, 0.00000, 1.690, 0.00000, 1.700, 0.00000, 1.710, 0.00000
1.720, 0.00000, 1.730, 0.00000, 1.740, 0.00000, 1.750, 0.00000
1.760, 0.00000, 1.770, 0.00000, 1.780, 0.00000, 1.790, 0.00000
1.800, 0.00000, 1.810, 0.00000, 1.820, 0.00000, 1.830, 0.00000
1.840, 0.00000, 1.850, 0.00000, 1.860, 0.00000, 1.870, 0.00000
1.880, 0.00000, 1.890, 0.00000, 1.900, 0.00000, 1.910, 0.00000
1.920, 0.00000, 1.930, 0.00000, 1.940, 0.00000, 1.950, 0.00000
1.960, 0.00000, 1.970, 0.00000, 1.980, 0.00000, 1.990, 0.00000
2.000, 0.00000, 2.010, 43.71920, 2.020, 87.43840, 2.030, 131.15759
2.040, 174.87679, 2.050, 218.59599, 2.060, 207.66619, 2.070, 196.73639
2.080, 185.80659, 2.090, 174.87679, 2.100, 163.94699, 2.110, 153.01719
2.120, 142.08739, 2.130, 131.15759, 2.140, 120.22779, 2.150, 109.29799
2.160, 98.36820, 2.170, 87.43840, 2.180, 76.50860, 2.190, 65.57880
2.200, 54.64900, 2.210, 43.71920, 2.220, 32.78940, 2.230, 21.85960
2.240, 10.92980, 2.250, 0.00000, 2.260, 0.00000, 2.270, 0.00000
2.280, 0.00000, 2.290, 0.00000, 2.300, 0.00000, 2.310, 0.00000
2.320, 0.00000, 2.330, 0.00000, 2.340, 0.00000, 2.350, 0.00000
2.360, 0.00000, 2.370, 0.00000, 2.380, 0.00000, 2.390, 0.00000
2.400, 0.00000, 2.410, 0.00000, 2.420, 0.00000, 2.430, 0.00000
2.440, 0.00000, 2.450, 0.00000, 2.460, 0.00000, 2.470, 0.00000
2.480, 0.00000, 2.490, 0.00000, 2.500, 0.00000, 2.510, 0.00000
2.520, 0.00000, 2.530, 0.00000, 2.540, 0.00000, 2.550, 0.00000
2.560, 0.00000, 2.570, 0.00000, 2.580, 0.00000, 2.590, 0.00000
2.600, 0.00000, 2.610, 0.00000, 2.620, 0.00000, 2.630, 0.00000
2.640, 0.00000, 2.650, 0.00000, 2.660, 0.00000, 2.670, 0.00000
2.680, 0.00000, 2.690, 0.00000, 2.700, 0.00000, 2.710, 0.00000
2.720, 0.00000, 2.730, 0.00000, 2.740, 0.00000, 2.750, 0.00000
2.760, 0.00000, 2.770, 0.00000, 2.780, 0.00000, 2.790, 0.00000
2.800, 0.00000, 2.810, 0.00000, 2.820, 0.00000, 2.830, 0.00000
2.840, 0.00000, 2.850, 0.00000, 2.860, 0.00000, 2.870, 0.00000
2.880, 0.00000, 2.890, 0.00000, 2.900, 0.00000, 2.910, 0.00000
2.920, 0.00000, 2.930, 0.00000, 2.940, 0.00000, 2.950, 0.00000
2.960, 0.00000, 2.970, 0.00000, 2.980, 0.00000, 2.990, 0.00000
3.000, 0.00000, 3.010, 0.00000, 3.020, 0.00000, 3.030, 0.00000
3.040, 0.00000, 3.050, 0.00000, 3.060, 0.00000, 3.070, 0.00000
3.080, 0.00000, 3.090, 0.00000, 3.100, 0.00000, 3.110, 0.00000
3.120, 0.00000, 3.130, 0.00000, 3.140, 0.00000, 3.150, 0.00000
3.160, 0.00000, 3.170, 0.00000, 3.180, 0.00000, 3.190, 0.00000
3.200, 0.00000, 3.210, 0.00000, 3.220, 0.00000, 3.230, 0.00000
3.240, 0.00000, 3.250, 0.00000, 3.260, 0.00000, 3.270, 0.00000
3.280, 0.00000, 3.290, 0.00000, 3.300, 0.00000, 3.310, 0.00000
3.320, 0.00000, 3.330, 0.00000, 3.340, 0.00000, 3.350, 0.00000
3.360, 0.00000, 3.370, 0.00000, 3.380, 0.00000, 3.390, 0.00000
3.400, 0.00000, 3.410, 0.00000, 3.420, 0.00000, 3.430, 0.00000
3.440, 0.00000, 3.450, 0.00000, 3.460, 0.00000, 3.470, 0.00000
3.480, 0.00000, 3.490, 0.00000, 3.500, 0.00000, 3.510, 0.00000
3.520, 0.00000, 3.530, 0.00000, 3.540, 0.00000, 3.550, 0.00000
3.560, 0.00000, 3.570, 0.00000, 3.580, 0.00000, 3.590, 0.00000
3.600, 0.00000, 3.610, 0.00000, 3.620, 0.00000, 3.630, 0.00000
3.640, 0.00000, 3.650, 0.00000, 3.660, 0.00000, 3.670, 0.00000
3.680, 0.00000, 3.690, 0.00000, 3.700, 0.00000, 3.710, 0.00000
3.720, 0.00000, 3.730, 0.00000, 3.740, 0.00000, 3.750, 0.00000
3.760, 0.00000, 3.770, 0.00000, 3.780, 0.00000, 3.790, 0.00000
3.800, 0.00000, 3.810, 0.00000, 3.820, 0.00000, 3.830, 0.00000
3.840, 0.00000, 3.850, 0.00000, 3.860, 0.00000, 3.870, 0.00000
3.880, 0.00000, 3.890, 0.00000, 3.900, 0.00000, 3.910, 0.00000
3.920, 0.00000, 3.930, 0.00000, 3.940, 0.00000, 3.950, 0.00000
3.960, 0.00000, 3.970, 0.00000, 3.980, 0.00000, 3.990, 0.00000
4.000, 0.00000, 4.010, 43.52625, 4.020, 87.05250, 4.030, 130.57875
4.040, 174.10500, 4.050, 217.63125, 4.060, 206.74969, 4.070, 195.86813
4.080, 184.98656, 4.090, 174.10500, 4.100, 163.22344, 4.110, 152.34188
4.120, 141.46031, 4.130, 130.57875, 4.140, 119.69719, 4.150, 108.81563
4.160, 97.93406, 4.170, 87.05250, 4.180, 76.17094, 4.190, 65.28938
4.200, 54.40781, 4.210, 43.52625, 4.220, 32.64469, 4.230, 21.76313
4.240, 10.88156, 4.250, 0.00000, 4.260, 0.00000, 4.270, 0.00000
4.280, 0.00000, 4.290, 0.00000, 4.300, 0.00000, 4.310, 0.00000
4.320, 0.00000, 4.330, 0.00000, 4.340, 0.00000, 4.350, 0.00000
4.360, 0.00000, 4.370, 0.00000, 4.380, 0.00000, 4.390, 0.00000
4.400, 0.00000, 4.410, 0.00000, 4.420, 0.00000, 4.430, 0.00000
4.440, 0.00000, 4.450, 0.00000, 4.460, 0.00000, 4.470, 0.00000
4.480, 0.00000, 4.490, 0.00000, 4.500, 0.00000, 4.510, 0.00000
4.520, 0.00000, 4.530, 0.00000, 4.540, 0.00000, 4.550, 0.00000
4.560, 0.00000, 4.570, 0.00000, 4.580, 0.00000, 4.590, 0.00000
4.600, 0.00000, 4.610, 0.00000, 4.620, 0.00000, 4.630, 0.00000
4.640, 0.00000, 4.650, 0.00000, 4.660, 0.00000, 4.670, 0.00000
4.680, 0.00000, 4.690, 0.00000, 4.700, 0.00000, 4.710, 0.00000
4.720, 0.00000, 4.730, 0.00000, 4.740, 0.00000, 4.750, 0.00000
4.760, 0.00000, 4.770, 0.00000, 4.780, 0.00000, 4.790, 0.00000
4.800, 0.00000, 4.810, 0.00000, 4.820, 0.00000, 4.830, 0.00000
4.840, 0.00000, 4.850, 0.00000, 4.860, 0.00000, 4.870, 0.00000
4.880, 0.00000, 4.890, 0.00000, 4.900, 0.00000, 4.910, 0.00000
4.920, 0.00000, 4.930, 0.00000, 4.940, 0.00000, 4.950, 0.00000
4.960, 0.00000, 4.970, 0.00000, 4.980, 0.00000, 4.990, 0.00000
5.000, 0.00000, 5.010, 0.00000, 5.020, 0.00000, 5.030, 0.00000
5.040, 0.00000, 5.050, 0.00000, 5.060, 0.00000, 5.070, 0.00000
5.080, 0.00000, 5.090, 0.00000, 5.100, 0.00000, 5.110, 0.00000
5.120, 0.00000, 5.130, 0.00000, 5.140, 0.00000, 5.150, 0.00000
5.160, 0.00000, 5.170, 0.00000, 5.180, 0.00000, 5.190, 0.00000
5.200, 0.00000, 5.210, 0.00000, 5.220, 0.00000, 5.230, 0.00000
5.240, 0.00000, 5.250, 0.00000, 5.260, 0.00000, 5.270, 0.00000
5.280, 0.00000, 5.290, 0.00000, 5.300, 0.00000, 5.310, 0.00000
5.320, 0.00000, 5.330, 0.00000, 5.340, 0.00000, 5.350, 0.00000
5.360, 0.00000, 5.370, 0.00000, 5.380, 0.00000, 5.390, 0.00000
5.400, 0.00000, 5.410, 0.00000, 5.420, 0.00000, 5.430, 0.00000
5.440, 0.00000, 5.450, 0.00000, 5.460, 0.00000, 5.470, 0.00000
5.480, 0.00000, 5.490, 0.00000, 5.500, 0.00000, 5.510, 0.00000
5.520, 0.00000, 5.530, 0.00000, 5.540, 0.00000, 5.550, 0.00000
5.560, 0.00000, 5.570, 0.00000, 5.580, 0.00000, 5.590, 0.00000
5.600, 0.00000, 5.610, 0.00000, 5.620, 0.00000, 5.630, 0.00000
5.640, 0.00000, 5.650, 0.00000, 5.660, 0.00000, 5.670, 0.00000
5.680, 0.00000, 5.690, 0.00000, 5.700, 0.00000, 5.710, 0.00000
5.720, 0.00000, 5.730, 0.00000, 5.740, 0.00000, 5.750, 0.00000
5.760, 0.00000, 5.770, 0.00000, 5.780, 0.00000, 5.790, 0.00000
5.800, 0.00000, 5.810, 0.00000, 5.820, 0.00000, 5.830, 0.00000
5.840, 0.00000, 5.850, 0.00000, 5.860, 0.00000, 5.870, 0.00000
5.880, 0.00000, 5.890, 0.00000, 5.900, 0.00000, 5.910, 0.00000
5.920, 0.00000, 5.930, 0.00000, 5.940, 0.00000, 5.950, 0.00000
5.960, 0.00000, 5.970, 0.00000, 5.980, 0.00000, 5.990, 0.00000
6.000, 0.00000, 6.010, 43.29938, 6.020, 86.59875, 6.030, 129.89813
6.040, 173.19751, 6.050, 216.49688, 6.060, 205.67204, 6.070, 194.84720
6.080, 184.02235, 6.090, 173.19751, 6.100, 162.37266, 6.110, 151.54782
6.120, 140.72297, 6.130, 129.89813, 6.140, 119.07329, 6.150, 108.24844
6.160, 97.42360, 6.170, 86.59875, 6.180, 75.77391, 6.190, 64.94907
6.200, 54.12422, 6.210, 43.29938, 6.220, 32.47453, 6.230, 21.64969
6.240, 10.82484, 6.250, 0.00000, 6.260, 0.00000, 6.270, 0.00000
6.280, 0.00000, 6.290, 0.00000, 6.300, 0.00000, 6.310, 0.00000
6.320, 0.00000, 6.330, 0.00000, 6.340, 0.00000, 6.350, 0.00000
6.360, 0.00000, 6.370, 0.00000, 6.380, 0.00000, 6.390, 0.00000
6.400, 0.00000, 6.410, 0.00000, 6.420, 0.00000, 6.430, 0.00000
6.440, 0.00000, 6.450, 0.00000, 6.460, 0.00000, 6.470, 0.00000
6.480, 0.00000, 6.490, 0.00000, 6.500, 0.00000, 6.510, 0.00000
6.520, 0.00000, 6.530, 0.00000, 6.540, 0.00000, 6.550, 0.00000
6.560, 0.00000, 6.570, 0.00000, 6.580, 0.00000, 6.590, 0.00000
6.600, 0.00000, 6.610, 0.00000, 6.620, 0.00000, 6.630, 0.00000
6.640, 0.00000, 6.650, 0.00000, 6.660, 0.00000, 6.670, 0.00000
6.680, 0.00000, 6.690, 0.00000, 6.700, 0.00000, 6.710, 0.00000
6.720, 0.00000, 6.730, 0.00000, 6.740, 0.00000, 6.750, 0.00000
6.760, 0.00000, 6.770, 0.00000, 6.780, 0.00000, 6.790, 0.00000
6.800, 0.00000, 6.810, 0.00000, 6.820, 0.00000, 6.830, 0.00000
6.840, 0.00000, 6.850, 0.00000, 6.860, 0.00000, 6.870, 0.00000
6.880, 0.00000, 6.890, 0.00000, 6.900, 0.00000, 6.910, 0.00000
6.920, 0.00000, 6.930, 0.00000, 6.940, 0.00000, 6.950, 0.00000
6.960, 0.00000, 6.970, 0.00000, 6.980, 0.00000, 6.990, 0.00000
7.000, 0.00000, 7.010, 0.00000, 7.020, 0.00000, 7.030, 0.00000
7.040, 0.00000, 7.050, 0.00000, 7.060, 0.00000, 7.070, 0.00000
7.080, 0.00000, 7.090, 0.00000, 7.100, 0.00000, 7.110, 0.00000
7.120, 0.00000, 7.130, 0.00000, 7.140, 0.00000, 7.150, 0.00000
7.160, 0.00000, 7.170, 0.00000, 7.180, 0.00000, 7.190, 0.00000
7.200, 0.00000, 7.210, 0.00000, 7.220, 0.00000, 7.230, 0.00000
7.240, 0.00000, 7.250, 0.00000, 7.260, 0.00000, 7.270, 0.00000
7.280, 0.00000, 7.290, 0.00000, 7.300, 0.00000, 7.310, 0.00000
7.320, 0.00000, 7.330, 0.00000, 7.340, 0.00000, 7.350, 0.00000
7.360, 0.00000, 7.370, 0.00000, 7.380, 0.00000, 7.390, 0.00000
7.400, 0.00000, 7.410, 0.00000, 7.420, 0.00000, 7.430, 0.00000
7.440, 0.00000, 7.450, 0.00000, 7.460, 0.00000, 7.470, 0.00000
7.480, 0.00000, 7.490, 0.00000, 7.500, 0.00000, 7.510, 0.00000
7.520, 0.00000, 7.530, 0.00000, 7.540, 0.00000, 7.550, 0.00000
7.560, 0.00000, 7.570, 0.00000, 7.580, 0.00000, 7.590, 0.00000
7.600, 0.00000, 7.610, 0.00000, 7.620, 0.00000, 7.630, 0.00000
7.640, 0.00000, 7.650, 0.00000, 7.660, 0.00000, 7.670, 0.00000
7.680, 0.00000, 7.690, 0.00000, 7.700, 0.00000, 7.710, 0.00000
7.720, 0.00000, 7.730, 0.00000, 7.740, 0.00000, 7.750, 0.00000
7.760, 0.00000, 7.770, 0.00000, 7.780, 0.00000, 7.790, 0.00000
7.800, 0.00000, 7.810, 0.00000, 7.820, 0.00000, 7.830, 0.00000
7.840, 0.00000, 7.850, 0.00000, 7.860, 0.00000, 7.870, 0.00000
7.880, 0.00000, 7.890, 0.00000, 7.900, 0.00000, 7.910, 0.00000
7.920, 0.00000, 7.930, 0.00000, 7.940, 0.00000, 7.950, 0.00000
7.960, 0.00000, 7.970, 0.00000, 7.980, 0.00000, 7.990, 0.00000
8.000, 0.00000, 8.010, 43.06494, 8.020, 86.12987, 8.030, 129.19481
8.040, 172.25974, 8.050, 215.32468, 8.060, 204.55844, 8.070, 193.79221
8.080, 183.02597, 8.090, 172.25974, 8.100, 161.49351, 8.110, 150.72727
8.120, 139.96104, 8.130, 129.19481, 8.140, 118.42857, 8.150, 107.66234
8.160, 96.89610, 8.170, 86.12987, 8.180, 75.36364, 8.190, 64.59740
8.200, 53.83117, 8.210, 43.06494, 8.220, 32.29870, 8.230, 21.53247
8.240, 10.76623, 8.250, 0.00000, 8.260, 0.00000, 8.270, 0.00000
8.280, 0.00000, 8.290, 0.00000, 8.300, 0.00000, 8.310, 0.00000
8.320, 0.00000, 8.330, 0.00000, 8.340, 0.00000, 8.350, 0.00000
8.360, 0.00000, 8.370, 0.00000, 8.380, 0.00000, 8.390, 0.00000
8.400, 0.00000, 8.410, 0.00000, 8.420, 0.00000, 8.430, 0.00000
8.440, 0.00000, 8.450, 0.00000, 8.460, 0.00000, 8.470, 0.00000
8.480, 0.00000, 8.490, 0.00000, 8.500, 0.00000, 8.510, 0.00000
8.520, 0.00000, 8.530, 0.00000, 8.540, 0.00000, 8.550, 0.00000
8.560, 0.00000, 8.570, 0.00000, 8.580, 0.00000, 8.590, 0.00000
8.600, 0.00000, 8.610, 0.00000, 8.620, 0.00000, 8.630, 0.00000
8.640, 0.00000, 8.650, 0.00000, 8.660, 0.00000, 8.670, 0.00000
8.680, 0.00000, 8.690, 0.00000, 8.700, 0.00000, 8.710, 0.00000
8.720, 0.00000, 8.730, 0.00000, 8.740, 0.00000, 8.750, 0.00000
8.760, 0.00000, 8.770, 0.00000, 8.780, 0.00000, 8.790, 0.00000
8.800, 0.00000, 8.810, 0.00000, 8.820, 0.00000, 8.830, 0.00000
8.840, 0.00000, 8.850, 0.00000, 8.860, 0.00000, 8.870, 0.00000
8.880, 0.00000, 8.890, 0.00000, 8.900, 0.00000, 8.910, 0.00000
8.920, 0.00000, 8.930, 0.00000, 8.940, 0.00000, 8.950, 0.00000
8.960, 0.00000, 8.970, 0.00000, 8.980, 0.00000, 8.990, 0.00000
9.000, 0.00000, 9.010, 0.00000, 9.020, 0.00000, 9.030, 0.00000
9.040, 0.00000, 9.050, 0.00000, 9.060, 0.00000, 9.070, 0.00000
9.080, 0.00000, 9.090, 0.00000, 9.100, 0.00000, 9.110, 0.00000
9.120, 0.00000, 9.130, 0.00000, 9.140, 0.00000, 9.150, 0.00000
9.160, 0.00000, 9.170, 0.00000, 9.180, 0.00000, 9.190, 0.00000
9.200, 0.00000, 9.210, 0.00000, 9.220, 0.00000, 9.230, 0.00000
9.240, 0.00000, 9.250, 0.00000, 9.260, 0.00000, 9.270, 0.00000
9.280, 0.00000, 9.290, 0.00000, 9.300, 0.00000, 9.310, 0.00000
9.320, 0.00000, 9.330, 0.00000, 9.340, 0.00000, 9.350, 0.00000
9.360, 0.00000, 9.370, 0.00000, 9.380, 0.00000, 9.390, 0.00000
9.400, 0.00000, 9.410, 0.00000, 9.420, 0.00000, 9.430, 0.00000
9.440, 0.00000, 9.450, 0.00000, 9.460, 0.00000, 9.470, 0.00000
9.480, 0.00000, 9.490, 0.00000, 9.500, 0.00000, 9.510, 0.00000
9.520, 0.00000, 9.530, 0.00000, 9.540, 0.00000, 9.550, 0.00000
9.560, 0.00000, 9.570, 0.00000, 9.580, 0.00000, 9.590, 0.00000
9.600, 0.00000, 9.610, 0.00000, 9.620, 0.00000, 9.630, 0.00000
9.640, 0.00000, 9.650, 0.00000, 9.660, 0.00000, 9.670, 0.00000
9.680, 0.00000, 9.690, 0.00000, 9.700, 0.00000, 9.710, 0.00000
9.720, 0.00000, 9.730, 0.00000, 9.740, 0.00000, 9.750, 0.00000
9.760, 0.00000, 9.770, 0.00000, 9.780, 0.00000, 9.790, 0.00000
9.800, 0.00000, 9.810, 0.00000, 9.820, 0.00000, 9.830, 0.00000
9.840, 0.00000, 9.850, 0.00000, 9.860, 0.00000, 9.870, 0.00000
9.880, 0.00000, 9.890, 0.00000, 9.900, 0.00000, 9.910, 0.00000
9.920, 0.00000, 9.930, 0.00000, 9.940, 0.00000, 9.950, 0.00000
9.960, 0.00000, 9.970, 0.00000, 9.980, 0.00000, 9.990, 0.00000
*AMPLITUDE, NAME=ROW21
0.000, 0.00000, 0.010, 19.44752, 0.020, 38.89504, 0.030, 58.34256
0.040, 77.79008, 0.050, 97.23760, 0.060, 92.37572, 0.070, 87.51384
0.080, 82.65196, 0.090, 77.79008, 0.100, 72.92820, 0.110, 68.06632
0.120, 63.20444, 0.130, 58.34256, 0.140, 53.48068, 0.150, 48.61880
0.160, 43.75692, 0.170, 38.89504, 0.180, 34.03316, 0.190, 29.17128
0.200, 24.30940, 0.210, 19.44752, 0.220, 14.58564, 0.230, 9.72376
0.240, 4.86188, 0.250, 0.00000, 0.260, 0.00000, 0.270, 0.00000
0.280, 0.00000, 0.290, 0.00000, 0.300, 0.00000, 0.310, 0.00000
0.320, 0.00000, 0.330, 0.00000, 0.340, 0.00000, 0.350, 0.00000
0.360, 0.00000, 0.370, 0.00000, 0.380, 0.00000, 0.390, 0.00000
0.400, 0.00000, 0.410, 0.00000, 0.420, 0.00000, 0.430, 0.00000
0.440, 0.00000, 0.450, 0.00000, 0.460, 0.00000, 0.470, 0.00000
0.480, 0.00000, 0.490, 0.00000, 0.500, 0.00000, 0.510, 0.00000
0.520, 0.00000, 0.530, 0.00000, 0.540, 0.00000, 0.550, 0.00000
0.560, 0.00000, 0.570, 0.00000, 0.580, 0.00000, 0.590, 0.00000
0.600, 0.00000, 0.610, 0.00000, 0.620, 0.00000, 0.630, 0.00000
0.640, 0.00000, 0.650, 0.00000, 0.660, 0.00000, 0.670, 0.00000
0.680, 0.00000, 0.690, 0.00000, 0.700, 0.00000, 0.710, 0.00000
0.720, 0.00000, 0.730, 0.00000, 0.740, 0.00000, 0.750, 0.00000
0.760, 0.00000, 0.770, 0.00000, 0.780, 0.00000, 0.790, 0.00000
0.800, 0.00000, 0.810, 0.00000, 0.820, 0.00000, 0.830, 0.00000
0.840, 0.00000, 0.850, 0.00000, 0.860, 0.00000, 0.870, 0.00000
0.880, 0.00000, 0.890, 0.00000, 0.900, 0.00000, 0.910, 0.00000
0.920, 0.00000, 0.930, 0.00000, 0.940, 0.00000, 0.950, 0.00000
0.960, 0.00000, 0.970, 0.00000, 0.980, 0.00000, 0.990, 0.00000
1.000, 0.00000, 1.010, 0.00000, 1.020, 0.00000, 1.030, 0.00000
1.040, 0.00000, 1.050, 0.00000, 1.060, 0.00000, 1.070, 0.00000
1.080, 0.00000, 1.090, 0.00000, 1.100, 0.00000, 1.110, 0.00000
1.120, 0.00000, 1.130, 0.00000, 1.140, 0.00000, 1.150, 0.00000
1.160, 0.00000, 1.170, 0.00000, 1.180, 0.00000, 1.190, 0.00000
1.200, 0.00000, 1.210, 0.00000, 1.220, 0.00000, 1.230, 0.00000
1.240, 0.00000, 1.250, 0.00000, 1.260, 0.00000, 1.270, 0.00000
1.280, 0.00000, 1.290, 0.00000, 1.300, 0.00000, 1.310, 0.00000
1.320, 0.00000, 1.330, 0.00000, 1.340, 0.00000, 1.350, 0.00000
1.360, 0.00000, 1.370, 0.00000, 1.380, 0.00000, 1.390, 0.00000
1.400, 0.00000, 1.410, 0.00000, 1.420, 0.00000, 1.430, 0.00000
1.440, 0.00000, 1.450, 0.00000, 1.460, 0.00000, 1.470, 0.00000
1.480, 0.00000, 1.490, 0.00000, 1.500, 0.00000, 1.510, 0.00000
1.520, 0.00000, 1.530, 0.00000, 1.540, 0.00000, 1.550, 0.00000
1.560, 0.00000, 1.570, 0.00000, 1.580, 0.00000, 1.590, 0.00000
1.600, 0.00000, 1.610, 0.00000, 1.620, 0.00000, 1.630, 0.00000
1.640, 0.00000, 1.650, 0.00000, 1.660, 0.00000, 1.670, 0.00000
1.680, 0.00000, 1.690, 0.00000, 1.700, 0.00000, 1.710, 0.00000
1.720, 0.00000, 1.730, 0.00000, 1.740, 0.00000, 1.750, 0.00000
1.760, 0.00000, 1.770, 0.00000, 1.780, 0.00000, 1.790, 0.00000
1.800, 0.00000, 1.810, 0.00000, 1.820, 0.00000, 1.830, 0.00000
1.840, 0.00000, 1.850, 0.00000, 1.860, 0.00000, 1.870, 0.00000
1.880, 0.00000, 1.890, 0.00000, 1.900, 0.00000, 1.910, 0.00000
1.920, 0.00000, 1.930, 0.00000, 1.940, 0.00000, 1.950, 0.00000
1.960, 0.00000, 1.970, 0.00000, 1.980, 0.00000, 1.990, 0.00000
2.000, 0.00000, 2.010, 19.42787, 2.020, 38.85575, 2.030, 58.28362
2.040, 77.71150, 2.050, 97.13937, 2.060, 92.28240, 2.070, 87.42543
2.080, 82.56847, 2.090, 77.71150, 2.100, 72.85453, 2.110, 67.99756
2.120, 63.14059, 2.130, 58.28362, 2.140, 53.42665, 2.150, 48.56969
2.160, 43.71272, 2.170, 38.85575, 2.180, 33.99878, 2.190, 29.14181
2.200, 24.28484, 2.210, 19.42787, 2.220, 14.57091, 2.230, 9.71394
2.240, 4.85697, 2.250, 0.00000, 2.260, 0.00000, 2.270, 0.00000
2.280, 0.00000, 2.290, 0.00000, 2.300, 0.00000, 2.310, 0.00000
2.320, 0.00000, 2.330, 0.00000, 2.340, 0.00000, 2.350, 0.00000
2.360, 0.00000, 2.370, 0.00000, 2.380, 0.00000, 2.390, 0.00000
2.400, 0.00000, 2.410, 0.00000, 2.420, 0.00000, 2.430, 0.00000
2.440, 0.00000, 2.450, 0.00000, 2.460, 0.00000, 2.470, 0.00000
2.480, 0.00000, 2.490, 0.00000, 2.500, 0.00000, 2.510, 0.00000
2.520, 0.00000, 2.530, 0.00000, 2.540, 0.00000, 2.550, 0.00000
2.560, 0.00000, 2.570, 0.00000, 2.580, 0.00000, 2.590, 0.00000
2.600, 0.00000, 2.610, 0.00000, 2.620, 0.00000, 2.630, 0.00000
2.640, 0.00000, 2.650, 0.00000, 2.660, 0.00000, 2.670, 0.00000
2.680, 0.00000, 2.690, 0.00000, 2.700, 0.00000, 2.710, 0.00000
2.720, 0.00000, 2.730, 0.00000, 2.740, 0.00000, 2.750, 0.00000
2.760, 0.00000, 2.770, 0.00000, 2.780, 0.00000, 2.790, 0.00000
2.800, 0.00000, 2.810, 0.00000, 2.820, 0.00000, 2.830, 0.00000
2.840, 0.00000, 2.850, 0.00000, 2.860, 0.00000, 2.870, 0.00000
2.880, 0.00000, 2.890, 0.00000, 2.900, 0.00000, 2.910, 0.00000
2.920, 0.00000, 2.930, 0.00000, 2.940, 0.00000, 2.950, 0.00000
2.960, 0.00000, 2.970, 0.00000, 2.980, 0.00000, 2.990, 0.00000
3.000, 0.00000, 3.010, 0.00000, 3.020, 0.00000, 3.030, 0.00000
3.040, 0.00000, 3.050, 0.00000, 3.060, 0.00000, 3.070, 0.00000
3.080, 0.00000, 3.090, 0.00000, 3.100, 0.00000, 3.110, 0.00000
3.120, 0.00000, 3.130, 0.00000, 3.140, 0.00000, 3.150, 0.00000
3.160, 0.00000, 3.170, 0.00000, 3.180, 0.00000, 3.190, 0.00000
3.200, 0.00000, 3.210, 0.00000, 3.220, 0.00000, 3.230, 0.00000
3.240, 0.00000, 3.250, 0.00000, 3.260, 0.00000, 3.270, 0.00000
3.280, 0.00000, 3.290, 0.00000, 3.300, 0.00000, 3.310, 0.00000
3.320, 0.00000, 3.330, 0.00000, 3.340, 0.00000, 3.350, 0.00000
3.360, 0.00000, 3.370, 0.00000, 3.380, 0.00000, 3.390, 0.00000
3.400, 0.00000, 3.410, 0.00000, 3.420, 0.00000, 3.430, 0.00000
3.440, 0.00000, 3.450, 0.00000, 3.460, 0.00000, 3.470, 0.00000
3.480, 0.00000, 3.490, 0.00000, 3.500, 0.00000, 3.510, 0.00000
3.520, 0.00000, 3.530, 0.00000, 3.540, 0.00000, 3.550, 0.00000
3.560, 0.00000, 3.570, 0.00000, 3.580, 0.00000, 3.590, 0.00000
3.600, 0.00000, 3.610, 0.00000, 3.620, 0.00000, 3.630, 0.00000
3.640, 0.00000, 3.650, 0.00000, 3.660, 0.00000, 3.670, 0.00000
3.680, 0.00000, 3.690, 0.00000, 3.700, 0.00000, 3.710, 0.00000
3.720, 0.00000, 3.730, 0.00000, 3.740, 0.00000, 3.750, 0.00000
3.760, 0.00000, 3.770, 0.00000, 3.780, 0.00000, 3.790, 0.00000
3.800, 0.00000, 3.810, 0.00000, 3.820, 0.00000, 3.830, 0.00000
3.840, 0.00000, 3.850, 0.00000, 3.860, 0.00000, 3.870, 0.00000
3.880, 0.00000, 3.890, 0.00000, 3.900, 0.00000, 3.910, 0.00000
3.920, 0.00000, 3.930, 0.00000, 3.940, 0.00000, 3.950, 0.00000
3.960, 0.00000, 3.970, 0.00000, 3.980, 0.00000, 3.990, 0.00000
4.000, 0.00000, 4.010, 19.34213, 4.020, 38.68427, 4.030, 58.02640
4.040, 77.36853, 4.050, 96.71066, 4.060, 91.87513, 4.070, 87.03960
4.080, 82.20406, 4.090, 77.36853, 4.100, 72.53300, 4.110, 67.69746
4.120, 62.86193, 4.130, 58.02640, 4.140, 53.19086, 4.150, 48.35533
4.160, 43.51980, 4.170, 38.68427, 4.180, 33.84873, 4.190, 29.01320
4.200, 24.17767, 4.210, 19.34213, 4.220, 14.50660, 4.230, 9.67107
4.240, 4.83553, 4.250, 0.00000, 4.260, 0.00000, 4.270, 0.00000
4.280, 0.00000, 4.290, 0.00000, 4.300, 0.00000, 4.310, 0.00000
4.320, 0.00000, 4.330, 0.00000, 4.340, 0.00000, 4.350, 0.00000
4.360, 0.00000, 4.370, 0.00000, 4.380, 0.00000, 4.390, 0.00000
4.400, 0.00000, 4.410, 0.00000, 4.420, 0.00000, 4.430, 0.00000
4.440, 0.00000, 4.450, 0.00000, 4.460, 0.00000, 4.470, 0.00000
4.480, 0.00000, 4.490, 0.00000, 4.500, 0.00000, 4.510, 0.00000
4.520, 0.00000, 4.530, 0.00000, 4.540, 0.00000, 4.550, 0.00000
4.560, 0.00000, 4.570, 0.00000, 4.580, 0.00000, 4.590, 0.00000
4.600, 0.00000, 4.610, 0.00000, 4.620, 0.00000, 4.630, 0.00000
4.640, 0.00000, 4.650, 0.00000, 4.660, 0.00000, 4.670, 0.00000
4.680, 0.00000, 4.690, 0.00000, 4.700, 0.00000, 4.710, 0.00000
4.720, 0.00000, 4.730, 0.00000, 4.740, 0.00000, 4.750, 0.00000
4.760, 0.00000, 4.770, 0.00000, 4.780, 0.00000, 4.790, 0.00000
4.800, 0.00000, 4.810, 0.00000, 4.820, 0.00000, 4.830, 0.00000
4.840, 0.00000, 4.850, 0.00000, 4.860, 0.00000, 4.870, 0.00000
4.880, 0.00000, 4.890, 0.00000, 4.900, 0.00000, 4.910, 0.00000
4.920, 0.00000, 4.930, 0.00000, 4.940, 0.00000, 4.950, 0.00000
4.960, 0.00000, 4.970, 0.00000, 4.980, 0.00000, 4.990, 0.00000
5.000, 0.00000, 5.010, 0.00000, 5.020, 0.00000, 5.030, 0.00000
5.040, 0.00000, 5.050, 0.00000, 5.060, 0.00000, 5.070, 0.00000
5.080, 0.00000, 5.090, 0.00000, 5.100, 0.00000, 5.110, 0.00000
5.120, 0.00000, 5.130, 0.00000, 5.140, 0.00000, 5.150, 0.00000
5.160, 0.00000, 5.170, 0.00000, 5.180, 0.00000, 5.190, 0.00000
5.200, 0.00000, 5.210, 0.00000, 5.220, 0.00000, 5.230, 0.00000
5.240, 0.00000, 5.250, 0.00000, 5.260, 0.00000, 5.270, 0.00000
5.280, 0.00000, 5.290, 0.00000, 5.300, 0.00000, 5.310, 0.00000
5.320, 0.00000, 5.330, 0.00000, 5.340, 0.00000, 5.350, 0.00000
5.360, 0.00000, 5.370, 0.00000, 5.380, 0.00000, 5.390, 0.00000
5.400, 0.00000, 5.410, 0.00000, 5.420, 0.00000, 5.430, 0.00000
5.440, 0.00000, 5.450, 0.00000, 5.460, 0.00000, 5.470, 0.00000
5.480, 0.00000, 5.490, 0.00000, 5.500, 0.00000, 5.510, 0.00000
5.520, 0.00000, 5.530, 0.00000, 5.540, 0.00000, 5.550, 0.00000
5.560, 0.00000, 5.570, 0.00000, 5.580, 0.00000, 5.590, 0.00000
5.600, 0.00000, 5.610, 0.00000, 5.620, 0.00000, 5.630, 0.00000
5.640, 0.00000, 5.650, 0.00000, 5.660, 0.00000, 5.670, 0.00000
5.680, 0.00000, 5.690, 0.00000, 5.700, 0.00000, 5.710, 0.00000
5.720, 0.00000, 5.730, 0.00000, 5.740, 0.00000, 5.750, 0.00000
5.760, 0.00000, 5.770, 0.00000, 5.780, 0.00000, 5.790, 0.00000
5.800, 0.00000, 5.810, 0.00000, 5.820, 0.00000, 5.830, 0.00000
5.840, 0.00000, 5.850, 0.00000, 5.860, 0.00000, 5.870, 0.00000
5.880, 0.00000, 5.890, 0.00000, 5.900, 0.00000, 5.910, 0.00000
5.920, 0.00000, 5.930, 0.00000, 5.940, 0.00000, 5.950, 0.00000
5.960, 0.00000, 5.970, 0.00000, 5.980, 0.00000, 5.990, 0.00000
6.000, 0.00000, 6.010, 19.24131, 6.020, 38.48263, 6.030, 57.72394
6.040, 76.96526, 6.050, 96.20657, 6.060, 91.39625, 6.070, 86.58592
6.080, 81.77559, 6.090, 76.96526, 6.100, 72.15493, 6.110, 67.34460
6.120, 62.53427, 6.130, 57.72394, 6.140, 52.91362, 6.150, 48.10329
6.160, 43.29296, 6.170, 38.48263, 6.180, 33.67230, 6.190, 28.86197
6.200, 24.05164, 6.210, 19.24131, 6.220, 14.43099, 6.230, 9.62066
6.240, 4.81033, 6.250, 0.00000, 6.260, 0.00000, 6.270, 0.00000
6.280, 0.00000, 6.290, 0.00000, 6.300, 0.00000, 6.310, 0.00000
6.320, 0.00000, 6.330, 0.00000, 6.340, 0.00000, 6.350, 0.00000
6.360, 0.00000, 6.370, 0.00000, 6.380, 0.00000, 6.390, 0.00000
6.400, 0.00000, 6.410, 0.00000, 6.420, 0.00000, 6.430, 0.00000
6.440, 0.00000, 6.450, 0.00000, 6.460, 0.00000, 6.470, 0.00000
6.480, 0.00000, 6.490, 0.00000, 6.500, 0.00000, 6.510, 0.00000
6.520, 0.00000, 6.530, 0.00000, 6.540, 0.00000, 6.550, 0.00000
6.560, 0.00000, 6.570, 0.00000, 6.580, 0.00000, 6.590, 0.00000
6.600, 0.00000, 6.610, 0.00000, 6.620, 0.00000, 6.630, 0.00000
6.640, 0.00000, 6.650, 0.00000, 6.660, 0.00000, 6.670, 0.00000
6.680, 0.00000, 6.690, 0.00000, 6.700, 0.00000, 6.710, 0.00000
6.720, 0.00000, 6.730, 0.00000, 6.740, 0.00000, 6.750, 0.00000
6.760, 0.00000, 6.770, 0.00000, 6.780, 0.00000, 6.790, 0.00000
6.800, 0.00000, 6.810, 0.00000, 6.820, 0.00000, 6.830, 0.00000
6.840, 0.00000, 6.850, 0.00000, 6.860, 0.00000, 6.870, 0.00000
6.880, 0.00000, 6.890, 0.00000, 6.900, 0.00000, 6.910, 0.00000
6.920, 0.00000, 6.930, 0.00000, 6.940, 0.00000, 6.950, 0.00000
6.960, 0.00000, 6.970, 0.00000, 6.980, 0.00000, 6.990, 0.00000
7.000, 0.00000, 7.010, 0.00000, 7.020, 0.00000, 7.030, 0.00000
7.040, 0.00000, 7.050, 0.00000, 7.060, 0.00000, 7.070, 0.00000
7.080, 0.00000, 7.090, 0.00000, 7.100, 0.00000, 7.110, 0.00000
7.120, 0.00000, 7.130, 0.00000, 7.140, 0.00000, 7.150, 0.00000
7.160, 0.00000, 7.170, 0.00000, 7.180, 0.00000, 7.190, 0.00000
7.200, 0.00000, 7.210, 0.00000, 7.220, 0.00000, 7.230, 0.00000
7.240, 0.00000, 7.250, 0.00000, 7.260, 0.00000, 7.270, 0.00000
7.280, 0.00000, 7.290, 0.00000, 7.300, 0.00000, 7.310, 0.00000
7.320, 0.00000, 7.330, 0.00000, 7.340, 0.00000, 7.350, 0.00000
7.360, 0.00000, 7.370, 0.00000, 7.380, 0.00000, 7.390, 0.00000
7.400, 0.00000, 7.410, 0.00000, 7.420, 0.00000, 7.430, 0.00000
7.440, 0.00000, 7.450, 0.00000, 7.460, 0.00000, 7.470, 0.00000
7.480, 0.00000, 7.490, 0.00000, 7.500, 0.00000, 7.510, 0.00000
7.520, 0.00000, 7.530, 0.00000, 7.540, 0.00000, 7.550, 0.00000
7.560, 0.00000, 7.570, 0.00000, 7.580, 0.00000, 7.590, 0.00000
7.600, 0.00000, 7.610, 0.00000, 7.620, 0.00000, 7.630, 0.00000
7.640, 0.00000, 7.650, 0.00000, 7.660, 0.00000, 7.670, 0.00000
7.680, 0.00000, 7.690, 0.00000, 7.700, 0.00000, 7.710, 0.00000
7.720, 0.00000, 7.730, 0.00000, 7.740, 0.00000, 7.750, 0.00000
7.760, 0.00000, 7.770, 0.00000, 7.780, 0.00000, 7.790, 0.00000
7.800, 0.00000, 7.810, 0.00000, 7.820, 0.00000, 7.830, 0.00000
7.840, 0.00000, 7.850, 0.00000, 7.860, 0.00000, 7.870, 0.00000
7.880, 0.00000, 7.890, 0.00000, 7.900, 0.00000, 7.910, 0.00000
7.920, 0.00000, 7.930, 0.00000, 7.940, 0.00000, 7.950, 0.00000
7.960, 0.00000, 7.970, 0.00000, 7.980, 0.00000, 7.990, 0.00000
8.000, 0.00000, 8.010, 19.13713, 8.020, 38.27427, 8.030, 57.41140
8.040, 76.54854, 8.050, 95.68567, 8.060, 90.90139, 8.070, 86.11710
8.080, 81.33282, 8.090, 76.54854, 8.100, 71.76425, 8.110, 66.97997
8.120, 62.19569, 8.130, 57.41140, 8.140, 52.62712, 8.150, 47.84283
8.160, 43.05855, 8.170, 38.27427, 8.180, 33.48998, 8.190, 28.70570
8.200, 23.92142, 8.210, 19.13713, 8.220, 14.35285, 8.230, 9.56857
8.240, 4.78428, 8.250, 0.00000, 8.260, 0.00000, 8.270, 0.00000
8.280, 0.00000, 8.290, 0.00000, 8.300, 0.00000, 8.310, 0.00000
8.320, 0.00000, 8.330, 0.00000, 8.340, 0.00000, 8.350, 0.00000
8.360, 0.00000, 8.370, 0.00000, 8.380, 0.00000, 8.390, 0.00000
8.400, 0.00000, 8.410, 0.00000, 8.420, 0.00000, 8.430, 0.00000
8.440, 0.00000, 8.450, 0.00000, 8.460, 0.00000, 8.470, 0.00000
8.480, 0.00000, 8.490, 0.00000, 8.500, 0.00000, 8.510, 0.00000
8.520, 0.00000, 8.530, 0.00000, 8.540, 0.00000, 8.550, 0.00000
8.560, 0.00000, 8.570, 0.00000, 8.580, 0.00000, 8.590, 0.00000
8.600, 0.00000, 8.610, 0.00000, 8.620, 0.00000, 8.630, 0.00000
8.640, 0.00000, 8.650, 0.00000, 8.660, 0.00000, 8.670, 0.00000
8.680, 0.00000, 8.690, 0.00000, 8.700, 0.00000, 8.710, 0.00000
8.720, 0.00000, 8.730, 0.00000, 8.740, 0.00000, 8.750, 0.00000
8.760, 0.00000, 8.770, 0.00000, 8.780, 0.00000, 8.790, 0.00000
8.800, 0.00000, 8.810, 0.00000, 8.820, 0.00000, 8.830, 0.00000
8.840, 0.00000, 8.850, 0.00000, 8.860, 0.00000, 8.870, 0.00000
8.880, 0.00000, 8.890, 0.00000, 8.900, 0.00000, 8.910, 0.00000
8.920, 0.00000, 8.930, 0.00000, 8.940, 0.00000, 8.950, 0.00000
8.960, 0.00000, 8.970, 0.00000, 8.980, 0.00000, 8.990, 0.00000
9.000, 0.00000, 9.010, 0.00000, 9.020, 0.00000, 9.030, 0.00000
9.040, 0.00000, 9.050, 0.00000, 9.060, 0.00000, 9.070, 0.00000
9.080, 0.00000, 9.090, 0.00000, 9.100, 0.00000, 9.110, 0.00000
9.120, 0.00000, 9.130, 0.00000, 9.140, 0.00000, 9.150, 0.00000
9.160, 0.00000, 9.170, 0.00000, 9.180, 0.00000, 9.190, 0.00000
9.200, 0.00000, 9.210, 0.00000, 9.220, 0.00000, 9.230, 0.00000
9.240, 0.00000, 9.250, 0.00000, 9.260, 0.00000, 9.270, 0.00000
9.280, 0.00000, 9.290, 0.00000, 9.300, 0.00000, 9.310, 0.00000
9.320, 0.00000, 9.330, 0.00000, 9.340, 0.00000, 9.350, 0.00000
9.360, 0.00000, 9.370, 0.00000, 9.380, 0.00000, 9.390, 0.00000
9.400, 0.00000, 9.410, 0.00000, 9.420, 0.00000, 9.430, 0.00000
9.440, 0.00000, 9.450, 0.00000, 9.460, 0.00000, 9.470, 0.00000
9.480, 0.00000, 9.490, 0.00000, 9.500, 0.00000, 9.510, 0.00000
9.520, 0.00000, 9.530, 0.00000, 9.540, 0.00000, 9.550, 0.00000
9.560, 0.00000, 9.570, 0.00000, 9.580, 0.00000, 9.590, 0.00000
9.600, 0.00000, 9.610, 0.00000, 9.620, 0.00000, 9.630, 0.00000
9.640, 0.00000, 9.650, 0.00000, 9.660, 0.00000, 9.670, 0.00000
9.680, 0.00000, 9.690, 0.00000, 9.700, 0.00000, 9.710, 0.00000
9.720, 0.00000, 9.730, 0.00000, 9.740, 0.00000, 9.750, 0.00000
9.760, 0.00000, 9.770, 0.00000, 9.780, 0.00000, 9.790, 0.00000
9.800, 0.00000, 9.810, 0.00000, 9.820, 0.00000, 9.830, 0.00000
9.840, 0.00000, 9.850, 0.00000, 9.860, 0.00000, 9.870, 0.00000
9.880, 0.00000, 9.890, 0.00000, 9.900, 0.00000, 9.910, 0.00000
9.920, 0.00000, 9.930, 0.00000, 9.940, 0.00000, 9.950, 0.00000
9.960, 0.00000, 9.970, 0.00000, 9.980, 0.00000, 9.990, 0.00000
*AMPLITUDE, NAME=ROW22
0.000, 0.00000, 0.010, 8.62228, 0.020, 17.24457, 0.030, 25.86685
0.040, 34.48914, 0.050, 43.11142, 0.060, 40.95585, 0.070, 38.80028
0.080, 36.64471, 0.090, 34.48914, 0.100, 32.33357, 0.110, 30.17799
0.120, 28.02242, 0.130, 25.86685, 0.140, 23.71128, 0.150, 21.55571
0.160, 19.40014, 0.170, 17.24457, 0.180, 15.08900, 0.190, 12.93343
0.200, 10.77786, 0.210, 8.62228, 0.220, 6.46671, 0.230, 4.31114
0.240, 2.15557, 0.250, 0.00000, 0.260, 0.00000, 0.270, 0.00000
0.280, 0.00000, 0.290, 0.00000, 0.300, 0.00000, 0.310, 0.00000
0.320, 0.00000, 0.330, 0.00000, 0.340, 0.00000, 0.350, 0.00000
0.360, 0.00000, 0.370, 0.00000, 0.380, 0.00000, 0.390, 0.00000
0.400, 0.00000, 0.410, 0.00000, 0.420, 0.00000, 0.430, 0.00000
0.440, 0.00000, 0.450, 0.00000, 0.460, 0.00000, 0.470, 0.00000
0.480, 0.00000, 0.490, 0.00000, 0.500, 0.00000, 0.510, 0.00000
0.520, 0.00000, 0.530, 0.00000, 0.540, 0.00000, 0.550, 0.00000
0.560, 0.00000, 0.570, 0.00000, 0.580, 0.00000, 0.590, 0.00000
0.600, 0.00000, 0.610, 0.00000, 0.620, 0.00000, 0.630, 0.00000
0.640, 0.00000, 0.650, 0.00000, 0.660, 0.00000, 0.670, 0.00000
0.680, 0.00000, 0.690, 0.00000, 0.700, 0.00000, 0.710, 0.00000
0.720, 0.00000, 0.730, 0.00000, 0.740, 0.00000, 0.750, 0.00000
0.760, 0.00000, 0.770, 0.00000, 0.780, 0.00000, 0.790, 0.00000
0.800, 0.00000, 0.810, 0.00000, 0.820, 0.00000, 0.830, 0.00000
0.840, 0.00000, 0.850, 0.00000, 0.860, 0.00000, 0.870, 0.00000
0.880, 0.00000, 0.890, 0.00000, 0.900, 0.00000, 0.910, 0.00000
0.920, 0.00000, 0.930, 0.00000, 0.940, 0.00000, 0.950, 0.00000
0.960, 0.00000, 0.970, 0.00000, 0.980, 0.00000, 0.990, 0.00000
1.000, 0.00000, 1.010, 0.00000, 1.020, 0.00000, 1.030, 0.00000
1.040, 0.00000, 1.050, 0.00000, 1.060, 0.00000, 1.070, 0.00000
1.080, 0.00000, 1.090, 0.00000, 1.100, 0.00000, 1.110, 0.00000
1.120, 0.00000, 1.130, 0.00000, 1.140, 0.00000, 1.150, 0.00000
1.160, 0.00000, 1.170, 0.00000, 1.180, 0.00000, 1.190, 0.00000
1.200, 0.00000, 1.210, 0.00000, 1.220, 0.00000, 1.230, 0.00000
1.240, 0.00000, 1.250, 0.00000, 1.260, 0.00000, 1.270, 0.00000
1.280, 0.00000, 1.290, 0.00000, 1.300, 0.00000, 1.310, 0.00000
1.320, 0.00000, 1.330, 0.00000, 1.340, 0.00000, 1.350, 0.00000
1.360, 0.00000, 1.370, 0.00000, 1.380, 0.00000, 1.390, 0.00000
1.400, 0.00000, 1.410, 0.00000, 1.420, 0.00000, 1.430, 0.00000
1.440, 0.00000, 1.450, 0.00000, 1.460, 0.00000, 1.470, 0.00000
1.480, 0.00000, 1.490, 0.00000, 1.500, 0.00000, 1.510, 0.00000
1.520, 0.00000, 1.530, 0.00000, 1.540, 0.00000, 1.550, 0.00000
1.560, 0.00000, 1.570, 0.00000, 1.580, 0.00000, 1.590, 0.00000
1.600, 0.00000, 1.610, 0.00000, 1.620, 0.00000, 1.630, 0.00000
1.640, 0.00000, 1.650, 0.00000, 1.660, 0.00000, 1.670, 0.00000
1.680, 0.00000, 1.690, 0.00000, 1.700, 0.00000, 1.710, 0.00000
1.720, 0.00000, 1.730, 0.00000, 1.740, 0.00000, 1.750, 0.00000
1.760, 0.00000, 1.770, 0.00000, 1.780, 0.00000, 1.790, 0.00000
1.800, 0.00000, 1.810, 0.00000, 1.820, 0.00000, 1.830, 0.00000
1.840, 0.00000, 1.850, 0.00000, 1.860, 0.00000, 1.870, 0.00000
1.880, 0.00000, 1.890, 0.00000, 1.900, 0.00000, 1.910, 0.00000
1.920, 0.00000, 1.930, 0.00000, 1.940, 0.00000, 1.950, 0.00000
1.960, 0.00000, 1.970, 0.00000, 1.980, 0.00000, 1.990, 0.00000
2.000, 0.00000, 2.010, 8.61357, 2.020, 17.22715, 2.030, 25.84072
2.040, 34.45429, 2.050, 43.06787, 2.060, 40.91447, 2.070, 38.76108
2.080, 36.60769, 2.090, 34.45429, 2.100, 32.30090, 2.110, 30.14751
2.120, 27.99411, 2.130, 25.84072, 2.140, 23.68733, 2.150, 21.53393
2.160, 19.38054, 2.170, 17.22715, 2.180, 15.07375, 2.190, 12.92036
2.200, 10.76697, 2.210, 8.61357, 2.220, 6.46018, 2.230, 4.30679
2.240, 2.15339, 2.250, 0.00000, 2.260, 0.00000, 2.270, 0.00000
2.280, 0.00000, 2.290, 0.00000, 2.300, 0.00000, 2.310, 0.00000
2.320, 0.00000, 2.330, 0.00000, 2.340, 0.00000, 2.350, 0.00000
2.360, 0.00000, 2.370, 0.00000, 2.380, 0.00000, 2.390, 0.00000
2.400, 0.00000, 2.410, 0.00000, 2.420, 0.00000, 2.430, 0.00000
2.440, 0.00000, 2.450, 0.00000, 2.460, 0.00000, 2.470, 0.00000
2.480, 0.00000, 2.490, 0.00000, 2.500, 0.00000, 2.510, 0.00000
2.520, 0.00000, 2.530, 0.00000, 2.540, 0.00000, 2.550, 0.00000
2.560, 0.00000, 2.570, 0.00000, 2.580, 0.00000, 2.590, 0.00000
2.600, 0.00000, 2.610, 0.00000, 2.620, 0.00000, 2.630, 0.00000
2.640, 0.00000, 2.650, 0.00000, 2.660, 0.00000, 2.670, 0.00000
2.680, 0.00000, 2.690, 0.00000, 2.700, 0.00000, 2.710, 0.00000
2.720, 0.00000, 2.730, 0.00000, 2.740, 0.00000, 2.750, 0.00000
2.760, 0.00000, 2.770, 0.00000, 2.780, 0.00000, 2.790, 0.00000
2.800, 0.00000, 2.810, 0.00000, 2.820, 0.00000, 2.830, 0.00000
2.840, 0.00000, 2.850, 0.00000, 2.860, 0.00000, 2.870, 0.00000
2.880, 0.00000, 2.890, 0.00000, 2.900, 0.00000, 2.910, 0.00000
2.920, 0.00000, 2.930, 0.00000, 2.940, 0.00000, 2.950, 0.00000
2.960, 0.00000, 2.970, 0.00000, 2.980, 0.00000, 2.990, 0.00000
3.000, 0.00000, 3.010, 0.00000, 3.020, 0.00000, 3.030, 0.00000
3.040, 0.00000, 3.050, 0.00000, 3.060, 0.00000, 3.070, 0.00000
3.080, 0.00000, 3.090, 0.00000, 3.100, 0.00000, 3.110, 0.00000
3.120, 0.00000, 3.130, 0.00000, 3.140, 0.00000, 3.150, 0.00000
3.160, 0.00000, 3.170, 0.00000, 3.180, 0.00000, 3.190, 0.00000
3.200, 0.00000, 3.210, 0.00000, 3.220, 0.00000, 3.230, 0.00000
3.240, 0.00000, 3.250, 0.00000, 3.260, 0.00000, 3.270, 0.00000
3.280, 0.00000, 3.290, 0.00000, 3.300, 0.00000, 3.310, 0.00000
3.320, 0.00000, 3.330, 0.00000, 3.340, 0.00000, 3.350, 0.00000
3.360, 0.00000, 3.370, 0.00000, 3.380, 0.00000, 3.390, 0.00000
3.400, 0.00000, 3.410, 0.00000, 3.420, 0.00000, 3.430, 0.00000
3.440, 0.00000, 3.450, 0.00000, 3.460, 0.00000, 3.470, 0.00000
3.480, 0.00000, 3.490, 0.00000, 3.500, 0.00000, 3.510, 0.00000
3.520, 0.00000, 3.530, 0.00000, 3.540, 0.00000, 3.550, 0.00000
3.560, 0.00000, 3.570, 0.00000, 3.580, 0.00000, 3.590, 0.00000
3.600, 0.00000, 3.610, 0.00000, 3.620, 0.00000, 3.630, 0.00000
3.640, 0.00000, 3.650, 0.00000, 3.660, 0.00000, 3.670, 0.00000
3.680, 0.00000, 3.690, 0.00000, 3.700, 0.00000, 3.710, 0.00000
3.720, 0.00000, 3.730, 0.00000, 3.740, 0.00000, 3.750, 0.00000
3.760, 0.00000, 3.770, 0.00000, 3.780, 0.00000, 3.790, 0.00000
3.800, 0.00000, 3.810, 0.00000, 3.820, 0.00000, 3.830, 0.00000
3.840, 0.00000, 3.850, 0.00000, 3.860, 0.00000, 3.870, 0.00000
3.880, 0.00000, 3.890, 0.00000, 3.900, 0.00000, 3.910, 0.00000
3.920, 0.00000, 3.930, 0.00000, 3.940, 0.00000, 3.950, 0.00000
3.960, 0.00000, 3.970, 0.00000, 3.980, 0.00000, 3.990, 0.00000
4.000, 0.00000, 4.010, 8.57556, 4.020, 17.15112, 4.030, 25.72668
4.040, 34.30224, 4.050, 42.87779, 4.060, 40.73390, 4.070, 38.59002
4.080, 36.44613, 4.090, 34.30224, 4.100, 32.15835, 4.110, 30.01446
4.120, 27.87057, 4.130, 25.72668, 4.140, 23.58279, 4.150, 21.43890
4.160, 19.29501, 4.170, 17.15112, 4.180, 15.00723, 4.190, 12.86334
4.200, 10.71945, 4.210, 8.57556, 4.220, 6.43167, 4.230, 4.28778
4.240, 2.14389, 4.250, 0.00000, 4.260, 0.00000, 4.270, 0.00000
4.280, 0.00000, 4.290, 0.00000, 4.300, 0.00000, 4.310, 0.00000
4.320, 0.00000, 4.330, 0.00000, 4.340, 0.00000, 4.350, 0.00000
4.360, 0.00000, 4.370, 0.00000, 4.380, 0.00000, 4.390, 0.00000
4.400, 0.00000, 4.410, 0.00000, 4.420, 0.00000, 4.430, 0.00000
4.440, 0.00000, 4.450, 0.00000, 4.460, 0.00000, 4.470, 0.00000
4.480, 0.00000, 4.490, 0.00000, 4.500, 0.00000, 4.510, 0.00000
4.520, 0.00000, 4.530, 0.00000, 4.540, 0.00000, 4.550, 0.00000
4.560, 0.00000, 4.570, 0.00000, 4.580, 0.00000, 4.590, 0.00000
4.600, 0.00000, 4.610, 0.00000, 4.620, 0.00000, 4.630, 0.00000
4.640, 0.00000, 4.650, 0.00000, 4.660, 0.00000, 4.670, 0.00000
4.680, 0.00000, 4.690, 0.00000, 4.700, 0.00000, 4.710, 0.00000
4.720, 0.00000, 4.730, 0.00000, 4.740, 0.00000, 4.750, 0.00000
4.760, 0.00000, 4.770, 0.00000, 4.780, 0.00000, 4.790, 0.00000
4.800, 0.00000, 4.810, 0.00000, 4.820, 0.00000, 4.830, 0.00000
4.840, 0.00000, 4.850, 0.00000, 4.860, 0.00000, 4.870, 0.00000
4.880, 0.00000, 4.890, 0.00000, 4.900, 0.00000, 4.910, 0.00000
4.920, 0.00000, 4.930, 0.00000, 4.940, 0.00000, 4.950, 0.00000
4.960, 0.00000, 4.970, 0.00000, 4.980, 0.00000, 4.990, 0.00000
5.000, 0.00000, 5.010, 0.00000, 5.020, 0.00000, 5.030, 0.00000
5.040, 0.00000, 5.050, 0.00000, 5.060, 0.00000, 5.070, 0.00000
5.080, 0.00000, 5.090, 0.00000, 5.100, 0.00000, 5.110, 0.00000
5.120, 0.00000, 5.130, 0.00000, 5.140, 0.00000, 5.150, 0.00000
5.160, 0.00000, 5.170, 0.00000, 5.180, 0.00000, 5.190, 0.00000
5.200, 0.00000, 5.210, 0.00000, 5.220, 0.00000, 5.230, 0.00000
5.240, 0.00000, 5.250, 0.00000, 5.260, 0.00000, 5.270, 0.00000
5.280, 0.00000, 5.290, 0.00000, 5.300, 0.00000, 5.310, 0.00000
5.320, 0.00000, 5.330, 0.00000, 5.340, 0.00000, 5.350, 0.00000
5.360, 0.00000, 5.370, 0.00000, 5.380, 0.00000, 5.390, 0.00000
5.400, 0.00000, 5.410, 0.00000, 5.420, 0.00000, 5.430, 0.00000
5.440, 0.00000, 5.450, 0.00000, 5.460, 0.00000, 5.470, 0.00000
5.480, 0.00000, 5.490, 0.00000, 5.500, 0.00000, 5.510, 0.00000
5.520, 0.00000, 5.530, 0.00000, 5.540, 0.00000, 5.550, 0.00000
5.560, 0.00000, 5.570, 0.00000, 5.580, 0.00000, 5.590, 0.00000
5.600, 0.00000, 5.610, 0.00000, 5.620, 0.00000, 5.630, 0.00000
5.640, 0.00000, 5.650, 0.00000, 5.660, 0.00000, 5.670, 0.00000
5.680, 0.00000, 5.690, 0.00000, 5.700, 0.00000, 5.710, 0.00000
5.720, 0.00000, 5.730, 0.00000, 5.740, 0.00000, 5.750, 0.00000
5.760, 0.00000, 5.770, 0.00000, 5.780, 0.00000, 5.790, 0.00000
5.800, 0.00000, 5.810, 0.00000, 5.820, 0.00000, 5.830, 0.00000
5.840, 0.00000, 5.850, 0.00000, 5.860, 0.00000, 5.870, 0.00000
5.880, 0.00000, 5.890, 0.00000, 5.900, 0.00000, 5.910, 0.00000
5.920, 0.00000, 5.930, 0.00000, 5.940, 0.00000, 5.950, 0.00000
5.960, 0.00000, 5.970, 0.00000, 5.980, 0.00000, 5.990, 0.00000
6.000, 0.00000, 6.010, 8.53086, 6.020, 17.06172, 6.030, 25.59258
6.040, 34.12344, 6.050, 42.65430, 6.060, 40.52159, 6.070, 38.38887
6.080, 36.25616, 6.090, 34.12344, 6.100, 31.99073, 6.110, 29.85801
6.120, 27.72530, 6.130, 25.59258, 6.140, 23.45987, 6.150, 21.32715
6.160, 19.19444, 6.170, 17.06172, 6.180, 14.92901, 6.190, 12.79629
6.200, 10.66358, 6.210, 8.53086, 6.220, 6.39815, 6.230, 4.26543
6.240, 2.13272, 6.250, 0.00000, 6.260, 0.00000, 6.270, 0.00000
6.280, 0.00000, 6.290, 0.00000, 6.300, 0.00000, 6.310, 0.00000
6.320, 0.00000, 6.330, 0.00000, 6.340, 0.00000, 6.350, 0.00000
6.360, 0.00000, 6.370, 0.00000, 6.380, 0.00000, 6.390, 0.00000
6.400, 0.00000, 6.410, 0.00000, 6.420, 0.00000, 6.430, 0.00000
6.440, 0.00000, 6.450, 0.00000, 6.460, 0.00000, 6.470, 0.00000
6.480, 0.00000, 6.490, 0.00000, 6.500, 0.00000, 6.510, 0.00000
6.520, 0.00000, 6.530, 0.00000, 6.540, 0.00000, 6.550, 0.00000
6.560, 0.00000, 6.570, 0.00000, 6.580, 0.00000, 6.590, 0.00000
6.600, 0.00000, 6.610, 0.00000, 6.620, 0.00000, 6.630, 0.00000
6.640, 0.00000, 6.650, 0.00000, 6.660, 0.00000, 6.670, 0.00000
6.680, 0.00000, 6.690, 0.00000, 6.700, 0.00000, 6.710, 0.00000
6.720, 0.00000, 6.730, 0.00000, 6.740, 0.00000, 6.750, 0.00000
6.760, 0.00000, 6.770, 0.00000, 6.780, 0.00000, 6.790, 0.00000
6.800, 0.00000, 6.810, 0.00000, 6.820, 0.00000, 6.830, 0.00000
6.840, 0.00000, 6.850, 0.00000, 6.860, 0.00000, 6.870, 0.00000
6.880, 0.00000, 6.890, 0.00000, 6.900, 0.00000, 6.910, 0.00000
6.920, 0.00000, 6.930, 0.00000, 6.940, 0.00000, 6.950, 0.00000
6.960, 0.00000, 6.970, 0.00000, 6.980, 0.00000, 6.990, 0.00000
7.000, 0.00000, 7.010, 0.00000, 7.020, 0.00000, 7.030, 0.00000
7.040, 0.00000, 7.050, 0.00000, 7.060, 0.00000, 7.070, 0.00000
7.080, 0.00000, 7.090, 0.00000, 7.100, 0.00000, 7.110, 0.00000
7.120, 0.00000, 7.130, 0.00000, 7.140, 0.00000, 7.150, 0.00000
7.160, 0.00000, 7.170, 0.00000, 7.180, 0.00000, 7.190, 0.00000
7.200, 0.00000, 7.210, 0.00000, 7.220, 0.00000, 7.230, 0.00000
7.240, 0.00000, 7.250, 0.00000, 7.260, 0.00000, 7.270, 0.00000
7.280, 0.00000, 7.290, 0.00000, 7.300, 0.00000, 7.310, 0.00000
7.320, 0.00000, 7.330, 0.00000, 7.340, 0.00000, 7.350, 0.00000
7.360, 0.00000, 7.370, 0.00000, 7.380, 0.00000, 7.390, 0.00000
7.400, 0.00000, 7.410, 0.00000, 7.420, 0.00000, 7.430, 0.00000
7.440, 0.00000, 7.450, 0.00000, 7.460, 0.00000, 7.470, 0.00000
7.480, 0.00000, 7.490, 0.00000, 7.500, 0.00000, 7.510, 0.00000
7.520, 0.00000, 7.530, 0.00000, 7.540, 0.00000, 7.550, 0.00000
7.560, 0.00000, 7.570, 0.00000, 7.580, 0.00000, 7.590, 0.00000
7.600, 0.00000, 7.610, 0.00000, 7.620, 0.00000, 7.630, 0.00000
7.640, 0.00000, 7.650, 0.00000, 7.660, 0.00000, 7.670, 0.00000
7.680, 0.00000, 7.690, 0.00000, 7.700, 0.00000, 7.710, 0.00000
7.720, 0.00000, 7.730, 0.00000, 7.740, 0.00000, 7.750, 0.00000
7.760, 0.00000, 7.770, 0.00000, 7.780, 0.00000, 7.790, 0.00000
7.800, 0.00000, 7.810, 0.00000, 7.820, 0.00000, 7.830, 0.00000
7.840, 0.00000, 7.850, 0.00000, 7.860, 0.00000, 7.870, 0.00000
7.880, 0.00000, 7.890, 0.00000, 7.900, 0.00000, 7.910, 0.00000
7.920, 0.00000, 7.930, 0.00000, 7.940, 0.00000, 7.950, 0.00000
7.960, 0.00000, 7.970, 0.00000, 7.980, 0.00000, 7.990, 0.00000
8.000, 0.00000, 8.010, 8.48467, 8.020, 16.96934, 8.030, 25.45401
8.040, 33.93868, 8.050, 42.42335, 8.060, 40.30218, 8.070, 38.18102
8.080, 36.05985, 8.090, 33.93868, 8.100, 31.81751, 8.110, 29.69635
8.120, 27.57518, 8.130, 25.45401, 8.140, 23.33284, 8.150, 21.21168
8.160, 19.09051, 8.170, 16.96934, 8.180, 14.84817, 8.190, 12.72701
8.200, 10.60584, 8.210, 8.48467, 8.220, 6.36350, 8.230, 4.24234
8.240, 2.12117, 8.250, 0.00000, 8.260, 0.00000, 8.270, 0.00000
8.280, 0.00000, 8.290, 0.00000, 8.300, 0.00000, 8.310, 0.00000
8.320, 0.00000, 8.330, 0.00000, 8.340, 0.00000, 8.350, 0.00000
8.360, 0.00000, 8.370, 0.00000, 8.380, 0.00000, 8.390, 0.00000
8.400, 0.00000, 8.410, 0.00000, 8.420, 0.00000, 8.430, 0.00000
8.440, 0.00000, 8.450, 0.00000, 8.460, 0.00000, 8.470, 0.00000
8.480, 0.00000, 8.490, 0.00000, 8.500, 0.00000, 8.510, 0.00000
8.520, 0.00000, 8.530, 0.00000, 8.540, 0.00000, 8.550, 0.00000
8.560, 0.00000, 8.570, 0.00000, 8.580, 0.00000, 8.590, 0.00000
8.600, 0.00000, 8.610, 0.00000, 8.620, 0.00000, 8.630, 0.00000
8.640, 0.00000, 8.650, 0.00000, 8.660, 0.00000, 8.670, 0.00000
8.680, 0.00000, 8.690, 0.00000, 8.700, 0.00000, 8.710, 0.00000
8.720, 0.00000, 8.730, 0.00000, 8.740, 0.00000, 8.750, 0.00000
8.760, 0.00000, 8.770, 0.00000, 8.780, 0.00000, 8.790, 0.00000
8.800, 0.00000, 8.810, 0.00000, 8.820, 0.00000, 8.830, 0.00000
8.840, 0.00000, 8.850, 0.00000, 8.860, 0.00000, 8.870, 0.00000
8.880, 0.00000, 8.890, 0.00000, 8.900, 0.00000, 8.910, 0.00000
8.920, 0.00000, 8.930, 0.00000, 8.940, 0.00000, 8.950, 0.00000
8.960, 0.00000, 8.970, 0.00000, 8.980, 0.00000, 8.990, 0.00000
9.000, 0.00000, 9.010, 0.00000, 9.020, 0.00000, 9.030, 0.00000
9.040, 0.00000, 9.050, 0.00000, 9.060, 0.00000, 9.070, 0.00000
9.080, 0.00000, 9.090, 0.00000, 9.100, 0.00000, 9.110, 0.00000
9.120, 0.00000, 9.130, 0.00000, 9.140, 0.00000, 9.150, 0.00000
9.160, 0.00000, 9.170, 0.00000, 9.180, 0.00000, 9.190, 0.00000
9.200, 0.00000, 9.210, 0.00000, 9.220, 0.00000, 9.230, 0.00000
9.240, 0.00000, 9.250, 0.00000, 9.260, 0.00000, 9.270, 0.00000
9.280, 0.00000, 9.290, 0.00000, 9.300, 0.00000, 9.310, 0.00000
9.320, 0.00000, 9.330, 0.00000, 9.340, 0.00000, 9.350, 0.00000
9.360, 0.00000, 9.370, 0.00000, 9.380, 0.00000, 9.390, 0.00000
9.400, 0.00000, 9.410, 0.00000, 9.420, 0.00000, 9.430, 0.00000
9.440, 0.00000, 9.450, 0.00000, 9.460, 0.00000, 9.470, 0.00000
9.480, 0.00000, 9.490, 0.00000, 9.500, 0.00000, 9.510, 0.00000
9.520, 0.00000, 9.530, 0.00000, 9.540, 0.00000, 9.550, 0.00000
9.560, 0.00000, 9.570, 0.00000, 9.580, 0.00000, 9.590, 0.00000
9.600, 0.00000, 9.610, 0.00000, 9.620, 0.00000, 9.630, 0.00000
9.640, 0.00000, 9.650, 0.00000, 9.660, 0.00000, 9.670, 0.00000
9.680, 0.00000, 9.690, 0.00000, 9.700, 0.00000, 9.710, 0.00000
9.720, 0.00000, 9.730, 0.00000, 9.740, 0.00000, 9.750, 0.00000
9.760, 0.00000, 9.770, 0.00000, 9.780, 0.00000, 9.790, 0.00000
9.800, 0.00000, 9.810, 0.00000, 9.820, 0.00000, 9.830, 0.00000
9.840, 0.00000, 9.850, 0.00000, 9.860, 0.00000, 9.870, 0.00000
9.880, 0.00000, 9.890, 0.00000, 9.900, 0.00000, 9.910, 0.00000
9.920, 0.00000, 9.930, 0.00000, 9.940, 0.00000, 9.950, 0.00000
9.960, 0.00000, 9.970, 0.00000, 9.980, 0.00000, 9.990, 0.00000
** 
** MATERIALS
** 
*Material, name="Concrete C30/37"
*Density
2300.,
*Elastic
 3e+10, 0.18
** 
** INTERACTION PROPERTIES
** 
*Surface Interaction, name=BLOCK-FILTER
*Friction
 0.6,
*Surface Behavior, pressure-overclosure=HARD
*Surface Interaction, name=IntProp-1
*Friction
 0.85,
*Surface Behavior, pressure-overclosure=HARD
** ----------------------------------------------------------------
** 
** STEP: Loading
** 
*Step, name=Loading, nlgeom=YES
Gravity
*Dynamic, Explicit
, 12.
*Bulk Viscosity
0.06, 1.2
** 
** BOUNDARY CONDITIONS
** 
** Name: BC-1 Type: Displacement/Rotation
*Boundary
_PickedSet484, 1, 1
_PickedSet484, 2, 2
_PickedSet484, 3, 3
_PickedSet484, 4, 4
_PickedSet484, 5, 5
_PickedSet484, 6, 6
** 
** LOADS
** 
** Name: Gravity   Type: Gravity
*Dload
_PickedSet426, GRAV, 9.81, 0., -1., 0.
** Name: Row1   Type: Pressure
*Dsload, amplitude=Row1
_PickedSurf456, P, -1.
** Name: Row2   Type: Pressure
*Dsload, amplitude=Row2
_PickedSurf457, P, -1.
** Name: Row3   Type: Pressure
*Dsload, amplitude=Row3
_PickedSurf458, P, -1.
** Name: Row4   Type: Pressure
*Dsload, amplitude=Row4
_PickedSurf459, P, -1.
** Name: Row5   Type: Pressure
*Dsload, amplitude=Row5
_PickedSurf460, P, -1.
** Name: Row6   Type: Pressure
*Dsload, amplitude=Row6
_PickedSurf461, P, -1.
** Name: Row7   Type: Pressure
*Dsload, amplitude=Row7
_PickedSurf462, P, -1.
** Name: Row8   Type: Pressure
*Dsload, amplitude=Row8
_PickedSurf463, P, -1.
** Name: Row9   Type: Pressure
*Dsload, amplitude=Row9
_PickedSurf464, P, -1.
** Name: Row10   Type: Pressure
*Dsload, amplitude=Row10
_PickedSurf465, P, -1.
** Name: Row11   Type: Pressure
*Dsload, amplitude=Row11
_PickedSurf466, P, -1.
** Name: Row12   Type: Pressure
*Dsload, amplitude=Row12
_PickedSurf467, P, -1.
** Name: Row13   Type: Pressure
*Dsload, amplitude=Row13
_PickedSurf468, P, -1.
** Name: Row14   Type: Pressure
*Dsload, amplitude=Row14
_PickedSurf469, P, -1.
** Name: Row15   Type: Pressure
*Dsload, amplitude=Row15
_PickedSurf470, P, -1.
** Name: Row16   Type: Pressure
*Dsload, amplitude=Row16
_PickedSurf471, P, -1.
** Name: Row17   Type: Pressure
*Dsload, amplitude=Row17
_PickedSurf472, P, -1.
** Name: Row18   Type: Pressure
*Dsload, amplitude=Row18
_PickedSurf473, P, -1.
** Name: Row19   Type: Pressure
*Dsload, amplitude=Row19
_PickedSurf474, P, -1.
** Name: Row20   Type: Pressure
*Dsload, amplitude=Row20
_PickedSurf475, P, -1.
** Name: Row21   Type: Pressure
*Dsload, amplitude=Row21
_PickedSurf476, P, -1.
** Name: Row22   Type: Pressure
*Dsload, amplitude=Row22
_PickedSurf477, P, -1.
** 
** INTERACTIONS
** 
** Interaction: Int-1
*Contact, op=NEW
*Contact Inclusions, ALL EXTERIOR
*Contact Property Assignment
 ,  , IntProp-1
Bottoms , Dike.Surf-2 , BLOCK-FILTER
** 
** OUTPUT REQUESTS
** 
*Restart, write, number interval=1, time marks=NO
** 
** FIELD OUTPUT: F-Output-1
** 
*Output, field, number interval=1200
*Node Output
A, RF, RT, U, V
*Element Output, directions=YES
S, SVAVG
*Contact Output
CFORCE, CSTRESS
** 
** HISTORY OUTPUT: H-Output-1
** 
*Output, history, variable=PRESELECT
*End Step
