*Heading
** Job name: Job-H-1_0 Model name: Model-1
** Generated by: Abaqus/CAE 2023
*Preprint, echo=NO, model=NO, history=NO, contact=NO
**
** PARTS
**
*Part, name=Block
*Node
      1,          0.5,           0.,  0.150000006
      2,  0.428571433,           0.,  0.150000006
      3,  0.357142866,           0.,  0.150000006
      4,  0.285714298,           0.,  0.150000006
      5,  0.214285716,           0.,  0.150000006
      6,  0.142857149,           0.,  0.150000006
      7, 0.0714285746,           0.,  0.150000006
      8,           0.,           0.,  0.150000006
      9,          0.5,           0.,  0.075000003
     10,  0.428571433,           0.,  0.075000003
     11,  0.357142866,           0.,  0.075000003
     12,  0.285714298,           0.,  0.075000003
     13,  0.214285716,           0.,  0.075000003
     14,  0.142857149,           0.,  0.075000003
     15, 0.0714285746,           0.,  0.075000003
     16,           0.,           0.,  0.075000003
     17,          0.5,           0.,           0.
     18,  0.428571433,           0.,           0.
     19,  0.357142866,           0.,           0.
     20,  0.285714298,           0.,           0.
     21,  0.214285716,           0.,           0.
     22,  0.142857149,           0.,           0.
     23, 0.0714285746,           0.,           0.
     24,           0.,           0.,           0.
     25,          0.5, 0.0714285746,  0.150000006
     26,  0.428571433, 0.0714285746,  0.150000006
     27,  0.357142866, 0.0714285746,  0.150000006
     28,  0.285714298, 0.0714285746,  0.150000006
     29,  0.214285716, 0.0714285746,  0.150000006
     30,  0.142857149, 0.0714285746,  0.150000006
     31, 0.0714285746, 0.0714285746,  0.150000006
     32,           0., 0.0714285746,  0.150000006
     33,          0.5, 0.0714285746,  0.075000003
     34,  0.428571433, 0.0714285746,  0.075000003
     35,  0.357142866, 0.0714285746,  0.075000003
     36,  0.285714298, 0.0714285746,  0.075000003
     37,  0.214285716, 0.0714285746,  0.075000003
     38,  0.142857149, 0.0714285746,  0.075000003
     39, 0.0714285746, 0.0714285746,  0.075000003
     40,           0., 0.0714285746,  0.075000003
     41,          0.5, 0.0714285746,           0.
     42,  0.428571433, 0.0714285746,           0.
     43,  0.357142866, 0.0714285746,           0.
     44,  0.285714298, 0.0714285746,           0.
     45,  0.214285716, 0.0714285746,           0.
     46,  0.142857149, 0.0714285746,           0.
     47, 0.0714285746, 0.0714285746,           0.
     48,           0., 0.0714285746,           0.
     49,          0.5,  0.142857149,  0.150000006
     50,  0.428571433,  0.142857149,  0.150000006
     51,  0.357142866,  0.142857149,  0.150000006
     52,  0.285714298,  0.142857149,  0.150000006
     53,  0.214285716,  0.142857149,  0.150000006
     54,  0.142857149,  0.142857149,  0.150000006
     55, 0.0714285746,  0.142857149,  0.150000006
     56,           0.,  0.142857149,  0.150000006
     57,          0.5,  0.142857149,  0.075000003
     58,  0.428571433,  0.142857149,  0.075000003
     59,  0.357142866,  0.142857149,  0.075000003
     60,  0.285714298,  0.142857149,  0.075000003
     61,  0.214285716,  0.142857149,  0.075000003
     62,  0.142857149,  0.142857149,  0.075000003
     63, 0.0714285746,  0.142857149,  0.075000003
     64,           0.,  0.142857149,  0.075000003
     65,          0.5,  0.142857149,           0.
     66,  0.428571433,  0.142857149,           0.
     67,  0.357142866,  0.142857149,           0.
     68,  0.285714298,  0.142857149,           0.
     69,  0.214285716,  0.142857149,           0.
     70,  0.142857149,  0.142857149,           0.
     71, 0.0714285746,  0.142857149,           0.
     72,           0.,  0.142857149,           0.
     73,          0.5,  0.214285716,  0.150000006
     74,  0.428571433,  0.214285716,  0.150000006
     75,  0.357142866,  0.214285716,  0.150000006
     76,  0.285714298,  0.214285716,  0.150000006
     77,  0.214285716,  0.214285716,  0.150000006
     78,  0.142857149,  0.214285716,  0.150000006
     79, 0.0714285746,  0.214285716,  0.150000006
     80,           0.,  0.214285716,  0.150000006
     81,          0.5,  0.214285716,  0.075000003
     82,  0.428571433,  0.214285716,  0.075000003
     83,  0.357142866,  0.214285716,  0.075000003
     84,  0.285714298,  0.214285716,  0.075000003
     85,  0.214285716,  0.214285716,  0.075000003
     86,  0.142857149,  0.214285716,  0.075000003
     87, 0.0714285746,  0.214285716,  0.075000003
     88,           0.,  0.214285716,  0.075000003
     89,          0.5,  0.214285716,           0.
     90,  0.428571433,  0.214285716,           0.
     91,  0.357142866,  0.214285716,           0.
     92,  0.285714298,  0.214285716,           0.
     93,  0.214285716,  0.214285716,           0.
     94,  0.142857149,  0.214285716,           0.
     95, 0.0714285746,  0.214285716,           0.
     96,           0.,  0.214285716,           0.
     97,          0.5,  0.285714298,  0.150000006
     98,  0.428571433,  0.285714298,  0.150000006
     99,  0.357142866,  0.285714298,  0.150000006
    100,  0.285714298,  0.285714298,  0.150000006
    101,  0.214285716,  0.285714298,  0.150000006
    102,  0.142857149,  0.285714298,  0.150000006
    103, 0.0714285746,  0.285714298,  0.150000006
    104,           0.,  0.285714298,  0.150000006
    105,          0.5,  0.285714298,  0.075000003
    106,  0.428571433,  0.285714298,  0.075000003
    107,  0.357142866,  0.285714298,  0.075000003
    108,  0.285714298,  0.285714298,  0.075000003
    109,  0.214285716,  0.285714298,  0.075000003
    110,  0.142857149,  0.285714298,  0.075000003
    111, 0.0714285746,  0.285714298,  0.075000003
    112,           0.,  0.285714298,  0.075000003
    113,          0.5,  0.285714298,           0.
    114,  0.428571433,  0.285714298,           0.
    115,  0.357142866,  0.285714298,           0.
    116,  0.285714298,  0.285714298,           0.
    117,  0.214285716,  0.285714298,           0.
    118,  0.142857149,  0.285714298,           0.
    119, 0.0714285746,  0.285714298,           0.
    120,           0.,  0.285714298,           0.
    121,          0.5,  0.357142866,  0.150000006
    122,  0.428571433,  0.357142866,  0.150000006
    123,  0.357142866,  0.357142866,  0.150000006
    124,  0.285714298,  0.357142866,  0.150000006
    125,  0.214285716,  0.357142866,  0.150000006
    126,  0.142857149,  0.357142866,  0.150000006
    127, 0.0714285746,  0.357142866,  0.150000006
    128,           0.,  0.357142866,  0.150000006
    129,          0.5,  0.357142866,  0.075000003
    130,  0.428571433,  0.357142866,  0.075000003
    131,  0.357142866,  0.357142866,  0.075000003
    132,  0.285714298,  0.357142866,  0.075000003
    133,  0.214285716,  0.357142866,  0.075000003
    134,  0.142857149,  0.357142866,  0.075000003
    135, 0.0714285746,  0.357142866,  0.075000003
    136,           0.,  0.357142866,  0.075000003
    137,          0.5,  0.357142866,           0.
    138,  0.428571433,  0.357142866,           0.
    139,  0.357142866,  0.357142866,           0.
    140,  0.285714298,  0.357142866,           0.
    141,  0.214285716,  0.357142866,           0.
    142,  0.142857149,  0.357142866,           0.
    143, 0.0714285746,  0.357142866,           0.
    144,           0.,  0.357142866,           0.
    145,          0.5,  0.428571433,  0.150000006
    146,  0.428571433,  0.428571433,  0.150000006
    147,  0.357142866,  0.428571433,  0.150000006
    148,  0.285714298,  0.428571433,  0.150000006
    149,  0.214285716,  0.428571433,  0.150000006
    150,  0.142857149,  0.428571433,  0.150000006
    151, 0.0714285746,  0.428571433,  0.150000006
    152,           0.,  0.428571433,  0.150000006
    153,          0.5,  0.428571433,  0.075000003
    154,  0.428571433,  0.428571433,  0.075000003
    155,  0.357142866,  0.428571433,  0.075000003
    156,  0.285714298,  0.428571433,  0.075000003
    157,  0.214285716,  0.428571433,  0.075000003
    158,  0.142857149,  0.428571433,  0.075000003
    159, 0.0714285746,  0.428571433,  0.075000003
    160,           0.,  0.428571433,  0.075000003
    161,          0.5,  0.428571433,           0.
    162,  0.428571433,  0.428571433,           0.
    163,  0.357142866,  0.428571433,           0.
    164,  0.285714298,  0.428571433,           0.
    165,  0.214285716,  0.428571433,           0.
    166,  0.142857149,  0.428571433,           0.
    167, 0.0714285746,  0.428571433,           0.
    168,           0.,  0.428571433,           0.
    169,          0.5,          0.5,  0.150000006
    170,  0.428571433,          0.5,  0.150000006
    171,  0.357142866,          0.5,  0.150000006
    172,  0.285714298,          0.5,  0.150000006
    173,  0.214285716,          0.5,  0.150000006
    174,  0.142857149,          0.5,  0.150000006
    175, 0.0714285746,          0.5,  0.150000006
    176,           0.,          0.5,  0.150000006
    177,          0.5,          0.5,  0.075000003
    178,  0.428571433,          0.5,  0.075000003
    179,  0.357142866,          0.5,  0.075000003
    180,  0.285714298,          0.5,  0.075000003
    181,  0.214285716,          0.5,  0.075000003
    182,  0.142857149,          0.5,  0.075000003
    183, 0.0714285746,          0.5,  0.075000003
    184,           0.,          0.5,  0.075000003
    185,          0.5,          0.5,           0.
    186,  0.428571433,          0.5,           0.
    187,  0.357142866,          0.5,           0.
    188,  0.285714298,          0.5,           0.
    189,  0.214285716,          0.5,           0.
    190,  0.142857149,          0.5,           0.
    191, 0.0714285746,          0.5,           0.
    192,           0.,          0.5,           0.
*Element, type=C3D8R
 1,  25,  26,  34,  33,   1,   2,  10,   9
 2,  26,  27,  35,  34,   2,   3,  11,  10
 3,  27,  28,  36,  35,   3,   4,  12,  11
 4,  28,  29,  37,  36,   4,   5,  13,  12
 5,  29,  30,  38,  37,   5,   6,  14,  13
 6,  30,  31,  39,  38,   6,   7,  15,  14
 7,  31,  32,  40,  39,   7,   8,  16,  15
 8,  33,  34,  42,  41,   9,  10,  18,  17
 9,  34,  35,  43,  42,  10,  11,  19,  18
10,  35,  36,  44,  43,  11,  12,  20,  19
11,  36,  37,  45,  44,  12,  13,  21,  20
12,  37,  38,  46,  45,  13,  14,  22,  21
13,  38,  39,  47,  46,  14,  15,  23,  22
14,  39,  40,  48,  47,  15,  16,  24,  23
15,  49,  50,  58,  57,  25,  26,  34,  33
16,  50,  51,  59,  58,  26,  27,  35,  34
17,  51,  52,  60,  59,  27,  28,  36,  35
18,  52,  53,  61,  60,  28,  29,  37,  36
19,  53,  54,  62,  61,  29,  30,  38,  37
20,  54,  55,  63,  62,  30,  31,  39,  38
21,  55,  56,  64,  63,  31,  32,  40,  39
22,  57,  58,  66,  65,  33,  34,  42,  41
23,  58,  59,  67,  66,  34,  35,  43,  42
24,  59,  60,  68,  67,  35,  36,  44,  43
25,  60,  61,  69,  68,  36,  37,  45,  44
26,  61,  62,  70,  69,  37,  38,  46,  45
27,  62,  63,  71,  70,  38,  39,  47,  46
28,  63,  64,  72,  71,  39,  40,  48,  47
29,  73,  74,  82,  81,  49,  50,  58,  57
30,  74,  75,  83,  82,  50,  51,  59,  58
31,  75,  76,  84,  83,  51,  52,  60,  59
32,  76,  77,  85,  84,  52,  53,  61,  60
33,  77,  78,  86,  85,  53,  54,  62,  61
34,  78,  79,  87,  86,  54,  55,  63,  62
35,  79,  80,  88,  87,  55,  56,  64,  63
36,  81,  82,  90,  89,  57,  58,  66,  65
37,  82,  83,  91,  90,  58,  59,  67,  66
38,  83,  84,  92,  91,  59,  60,  68,  67
39,  84,  85,  93,  92,  60,  61,  69,  68
40,  85,  86,  94,  93,  61,  62,  70,  69
41,  86,  87,  95,  94,  62,  63,  71,  70
42,  87,  88,  96,  95,  63,  64,  72,  71
43,  97,  98, 106, 105,  73,  74,  82,  81
44,  98,  99, 107, 106,  74,  75,  83,  82
45,  99, 100, 108, 107,  75,  76,  84,  83
46, 100, 101, 109, 108,  76,  77,  85,  84
47, 101, 102, 110, 109,  77,  78,  86,  85
48, 102, 103, 111, 110,  78,  79,  87,  86
49, 103, 104, 112, 111,  79,  80,  88,  87
50, 105, 106, 114, 113,  81,  82,  90,  89
51, 106, 107, 115, 114,  82,  83,  91,  90
52, 107, 108, 116, 115,  83,  84,  92,  91
53, 108, 109, 117, 116,  84,  85,  93,  92
54, 109, 110, 118, 117,  85,  86,  94,  93
55, 110, 111, 119, 118,  86,  87,  95,  94
56, 111, 112, 120, 119,  87,  88,  96,  95
57, 121, 122, 130, 129,  97,  98, 106, 105
58, 122, 123, 131, 130,  98,  99, 107, 106
59, 123, 124, 132, 131,  99, 100, 108, 107
60, 124, 125, 133, 132, 100, 101, 109, 108
61, 125, 126, 134, 133, 101, 102, 110, 109
62, 126, 127, 135, 134, 102, 103, 111, 110
63, 127, 128, 136, 135, 103, 104, 112, 111
64, 129, 130, 138, 137, 105, 106, 114, 113
65, 130, 131, 139, 138, 106, 107, 115, 114
66, 131, 132, 140, 139, 107, 108, 116, 115
67, 132, 133, 141, 140, 108, 109, 117, 116
68, 133, 134, 142, 141, 109, 110, 118, 117
69, 134, 135, 143, 142, 110, 111, 119, 118
70, 135, 136, 144, 143, 111, 112, 120, 119
71, 145, 146, 154, 153, 121, 122, 130, 129
72, 146, 147, 155, 154, 122, 123, 131, 130
73, 147, 148, 156, 155, 123, 124, 132, 131
74, 148, 149, 157, 156, 124, 125, 133, 132
75, 149, 150, 158, 157, 125, 126, 134, 133
76, 150, 151, 159, 158, 126, 127, 135, 134
77, 151, 152, 160, 159, 127, 128, 136, 135
78, 153, 154, 162, 161, 129, 130, 138, 137
79, 154, 155, 163, 162, 130, 131, 139, 138
80, 155, 156, 164, 163, 131, 132, 140, 139
81, 156, 157, 165, 164, 132, 133, 141, 140
82, 157, 158, 166, 165, 133, 134, 142, 141
83, 158, 159, 167, 166, 134, 135, 143, 142
84, 159, 160, 168, 167, 135, 136, 144, 143
85, 169, 170, 178, 177, 145, 146, 154, 153
86, 170, 171, 179, 178, 146, 147, 155, 154
87, 171, 172, 180, 179, 147, 148, 156, 155
88, 172, 173, 181, 180, 148, 149, 157, 156
89, 173, 174, 182, 181, 149, 150, 158, 157
90, 174, 175, 183, 182, 150, 151, 159, 158
91, 175, 176, 184, 183, 151, 152, 160, 159
92, 177, 178, 186, 185, 153, 154, 162, 161
93, 178, 179, 187, 186, 154, 155, 163, 162
94, 179, 180, 188, 187, 155, 156, 164, 163
95, 180, 181, 189, 188, 156, 157, 165, 164
96, 181, 182, 190, 189, 157, 158, 166, 165
97, 182, 183, 191, 190, 158, 159, 167, 166
98, 183, 184, 192, 191, 159, 160, 168, 167
*Nset, nset=_PickedSet2, internal, generate
   1,  192,    1
*Elset, elset=_PickedSet2, internal, generate
  1,  98,   1
*Elset, elset=_bot_S5, internal
  8,  9, 10, 11, 12, 13, 14, 22, 23, 24, 25, 26, 27, 28, 36, 37
 38, 39, 40, 41, 42, 50, 51, 52, 53, 54, 55, 56, 64, 65, 66, 67
 68, 69, 70, 78, 79, 80, 81, 82, 83, 84, 92, 93, 94, 95, 96, 97
 98,
*Surface, type=ELEMENT, name=bot
_bot_S5, S5
** Section: BrickSection
*Solid Section, elset=_PickedSet2, material="Concrete C30/37"
,
*End Part
**  
*Part, name=DikeRigid
*End Part
**  
*Part, name=HalfBlock
*Node
      1,        21.25,          25.,  0.150000006
      2,        21.25,   24.9285717,  0.150000006
      3,        21.25,   24.8571434,  0.150000006
      4,        21.25,   24.7857151,  0.150000006
      5,        21.25,   24.7142849,  0.150000006
      6,        21.25,   24.6428566,  0.150000006
      7,        21.25,   24.5714283,  0.150000006
      8,        21.25,         24.5,  0.150000006
      9,        21.25,          25.,  0.075000003
     10,        21.25,   24.9285717,  0.075000003
     11,        21.25,   24.8571434,  0.075000003
     12,        21.25,   24.7857151,  0.075000003
     13,        21.25,   24.7142849,  0.075000003
     14,        21.25,   24.6428566,  0.075000003
     15,        21.25,   24.5714283,  0.075000003
     16,        21.25,         24.5,  0.075000003
     17,        21.25,          25.,           0.
     18,        21.25,   24.9285717,           0.
     19,        21.25,   24.8571434,           0.
     20,        21.25,   24.7857151,           0.
     21,        21.25,   24.7142849,           0.
     22,        21.25,   24.6428566,           0.
     23,        21.25,   24.5714283,           0.
     24,        21.25,         24.5,           0.
     25,   21.1812496,          25.,  0.150000006
     26,   21.1812496,   24.9285717,  0.150000006
     27,   21.1812496,   24.8571434,  0.150000006
     28,   21.1812496,   24.7857151,  0.150000006
     29,   21.1812496,   24.7142849,  0.150000006
     30,   21.1812496,   24.6428566,  0.150000006
     31,   21.1812496,   24.5714283,  0.150000006
     32,   21.1812496,         24.5,  0.150000006
     33,   21.1812496,          25.,  0.075000003
     34,   21.1812496,   24.9285717,  0.075000003
     35,   21.1812496,   24.8571434,  0.075000003
     36,   21.1812496,   24.7857151,  0.075000003
     37,   21.1812496,   24.7142849,  0.075000003
     38,   21.1812496,   24.6428566,  0.075000003
     39,   21.1812496,   24.5714283,  0.075000003
     40,   21.1812496,         24.5,  0.075000003
     41,   21.1812496,          25.,           0.
     42,   21.1812496,   24.9285717,           0.
     43,   21.1812496,   24.8571434,           0.
     44,   21.1812496,   24.7857151,           0.
     45,   21.1812496,   24.7142849,           0.
     46,   21.1812496,   24.6428566,           0.
     47,   21.1812496,   24.5714283,           0.
     48,   21.1812496,         24.5,           0.
     49,   21.1124992,          25.,  0.150000006
     50,   21.1124992,   24.9285717,  0.150000006
     51,   21.1124992,   24.8571434,  0.150000006
     52,   21.1124992,   24.7857151,  0.150000006
     53,   21.1124992,   24.7142849,  0.150000006
     54,   21.1124992,   24.6428566,  0.150000006
     55,   21.1124992,   24.5714283,  0.150000006
     56,   21.1124992,         24.5,  0.150000006
     57,   21.1124992,          25.,  0.075000003
     58,   21.1124992,   24.9285717,  0.075000003
     59,   21.1124992,   24.8571434,  0.075000003
     60,   21.1124992,   24.7857151,  0.075000003
     61,   21.1124992,   24.7142849,  0.075000003
     62,   21.1124992,   24.6428566,  0.075000003
     63,   21.1124992,   24.5714283,  0.075000003
     64,   21.1124992,         24.5,  0.075000003
     65,   21.1124992,          25.,           0.
     66,   21.1124992,   24.9285717,           0.
     67,   21.1124992,   24.8571434,           0.
     68,   21.1124992,   24.7857151,           0.
     69,   21.1124992,   24.7142849,           0.
     70,   21.1124992,   24.6428566,           0.
     71,   21.1124992,   24.5714283,           0.
     72,   21.1124992,         24.5,           0.
     73,   21.0437508,          25.,  0.150000006
     74,   21.0437508,   24.9285717,  0.150000006
     75,   21.0437508,   24.8571434,  0.150000006
     76,   21.0437508,   24.7857151,  0.150000006
     77,   21.0437508,   24.7142849,  0.150000006
     78,   21.0437508,   24.6428566,  0.150000006
     79,   21.0437508,   24.5714283,  0.150000006
     80,   21.0437508,         24.5,  0.150000006
     81,   21.0437508,          25.,  0.075000003
     82,   21.0437508,   24.9285717,  0.075000003
     83,   21.0437508,   24.8571434,  0.075000003
     84,   21.0437508,   24.7857151,  0.075000003
     85,   21.0437508,   24.7142849,  0.075000003
     86,   21.0437508,   24.6428566,  0.075000003
     87,   21.0437508,   24.5714283,  0.075000003
     88,   21.0437508,         24.5,  0.075000003
     89,   21.0437508,          25.,           0.
     90,   21.0437508,   24.9285717,           0.
     91,   21.0437508,   24.8571434,           0.
     92,   21.0437508,   24.7857151,           0.
     93,   21.0437508,   24.7142849,           0.
     94,   21.0437508,   24.6428566,           0.
     95,   21.0437508,   24.5714283,           0.
     96,   21.0437508,         24.5,           0.
     97,   20.9750004,          25.,  0.150000006
     98,   20.9750004,   24.9285717,  0.150000006
     99,   20.9750004,   24.8571434,  0.150000006
    100,   20.9750004,   24.7857151,  0.150000006
    101,   20.9750004,   24.7142849,  0.150000006
    102,   20.9750004,   24.6428566,  0.150000006
    103,   20.9750004,   24.5714283,  0.150000006
    104,   20.9750004,         24.5,  0.150000006
    105,   20.9750004,          25.,  0.075000003
    106,   20.9750004,   24.9285717,  0.075000003
    107,   20.9750004,   24.8571434,  0.075000003
    108,   20.9750004,   24.7857151,  0.075000003
    109,   20.9750004,   24.7142849,  0.075000003
    110,   20.9750004,   24.6428566,  0.075000003
    111,   20.9750004,   24.5714283,  0.075000003
    112,   20.9750004,         24.5,  0.075000003
    113,   20.9750004,          25.,           0.
    114,   20.9750004,   24.9285717,           0.
    115,   20.9750004,   24.8571434,           0.
    116,   20.9750004,   24.7857151,           0.
    117,   20.9750004,   24.7142849,           0.
    118,   20.9750004,   24.6428566,           0.
    119,   20.9750004,   24.5714283,           0.
    120,   20.9750004,         24.5,           0.
*Element, type=C3D8R
 1,  25,  26,  34,  33,   1,   2,  10,   9
 2,  26,  27,  35,  34,   2,   3,  11,  10
 3,  27,  28,  36,  35,   3,   4,  12,  11
 4,  28,  29,  37,  36,   4,   5,  13,  12
 5,  29,  30,  38,  37,   5,   6,  14,  13
 6,  30,  31,  39,  38,   6,   7,  15,  14
 7,  31,  32,  40,  39,   7,   8,  16,  15
 8,  33,  34,  42,  41,   9,  10,  18,  17
 9,  34,  35,  43,  42,  10,  11,  19,  18
10,  35,  36,  44,  43,  11,  12,  20,  19
11,  36,  37,  45,  44,  12,  13,  21,  20
12,  37,  38,  46,  45,  13,  14,  22,  21
13,  38,  39,  47,  46,  14,  15,  23,  22
14,  39,  40,  48,  47,  15,  16,  24,  23
15,  49,  50,  58,  57,  25,  26,  34,  33
16,  50,  51,  59,  58,  26,  27,  35,  34
17,  51,  52,  60,  59,  27,  28,  36,  35
18,  52,  53,  61,  60,  28,  29,  37,  36
19,  53,  54,  62,  61,  29,  30,  38,  37
20,  54,  55,  63,  62,  30,  31,  39,  38
21,  55,  56,  64,  63,  31,  32,  40,  39
22,  57,  58,  66,  65,  33,  34,  42,  41
23,  58,  59,  67,  66,  34,  35,  43,  42
24,  59,  60,  68,  67,  35,  36,  44,  43
25,  60,  61,  69,  68,  36,  37,  45,  44
26,  61,  62,  70,  69,  37,  38,  46,  45
27,  62,  63,  71,  70,  38,  39,  47,  46
28,  63,  64,  72,  71,  39,  40,  48,  47
29,  73,  74,  82,  81,  49,  50,  58,  57
30,  74,  75,  83,  82,  50,  51,  59,  58
31,  75,  76,  84,  83,  51,  52,  60,  59
32,  76,  77,  85,  84,  52,  53,  61,  60
33,  77,  78,  86,  85,  53,  54,  62,  61
34,  78,  79,  87,  86,  54,  55,  63,  62
35,  79,  80,  88,  87,  55,  56,  64,  63
36,  81,  82,  90,  89,  57,  58,  66,  65
37,  82,  83,  91,  90,  58,  59,  67,  66
38,  83,  84,  92,  91,  59,  60,  68,  67
39,  84,  85,  93,  92,  60,  61,  69,  68
40,  85,  86,  94,  93,  61,  62,  70,  69
41,  86,  87,  95,  94,  62,  63,  71,  70
42,  87,  88,  96,  95,  63,  64,  72,  71
43,  97,  98, 106, 105,  73,  74,  82,  81
44,  98,  99, 107, 106,  74,  75,  83,  82
45,  99, 100, 108, 107,  75,  76,  84,  83
46, 100, 101, 109, 108,  76,  77,  85,  84
47, 101, 102, 110, 109,  77,  78,  86,  85
48, 102, 103, 111, 110,  78,  79,  87,  86
49, 103, 104, 112, 111,  79,  80,  88,  87
50, 105, 106, 114, 113,  81,  82,  90,  89
51, 106, 107, 115, 114,  82,  83,  91,  90
52, 107, 108, 116, 115,  83,  84,  92,  91
53, 108, 109, 117, 116,  84,  85,  93,  92
54, 109, 110, 118, 117,  85,  86,  94,  93
55, 110, 111, 119, 118,  86,  87,  95,  94
56, 111, 112, 120, 119,  87,  88,  96,  95
*Nset, nset=_PickedSet2, internal, generate
   1,  120,    1
*Elset, elset=_PickedSet2, internal, generate
  1,  56,   1
*Elset, elset=_bot_S5, internal
  8,  9, 10, 11, 12, 13, 14, 22, 23, 24, 25, 26, 27, 28, 36, 37
 38, 39, 40, 41, 42, 50, 51, 52, 53, 54, 55, 56
*Surface, type=ELEMENT, name=bot
_bot_S5, S5
** Section: BrickSection
*Solid Section, elset=_PickedSet2, material="Concrete C30/37"
,
*End Part
**  
*Part, name=Wall
*End Part
**  
**
** ASSEMBLY
**
*Assembly, name=Assembly
**  
*Instance, name=B-1-10, part=HalfBlock
-12.8256910813658, 13.0837826918802,      -25.975
-12.8256910813658, 13.0837826918802,      -25.975, -12.195687021233, 13.5378639039308, -25.3449959398672, 228.843812872893
*End Instance
**  
*Instance, name=B-1-9, part=Block
10.4170496808369, 5.3362024391297,       -4.175
10.4170496808369, 5.3362024391297,       -4.175, 9.44238715723876, 5.49436839884064, -4.33316595971094, 91.4702773561219
*End Instance
**  
*Instance, name=B-1-8, part=Block
10.4170496808369, 5.3362024391297,       -3.625
10.4170496808369, 5.3362024391297,       -3.625, 9.44238715723876, 5.49436839884064, -3.78316595971094, 91.4702773561219
*End Instance
**  
*Instance, name=B-1-7, part=Block
10.4170496808369, 5.3362024391297,       -3.075
10.4170496808369, 5.3362024391297,       -3.075, 9.44238715723876, 5.49436839884064, -3.23316595971095, 91.4702773561219
*End Instance
**  
*Instance, name=B-1-6, part=Block
10.4170496808369, 5.3362024391297,       -2.525
10.4170496808369, 5.3362024391297,       -2.525, 9.44238715723876, 5.49436839884064, -2.68316595971094, 91.4702773561219
*End Instance
**  
*Instance, name=B-1-5, part=Block
10.4170496808369, 5.3362024391297,       -1.975
10.4170496808369, 5.3362024391297,       -1.975, 9.44238715723876, 5.49436839884064, -2.13316595971094, 91.4702773561219
*End Instance
**  
*Instance, name=B-1-4, part=Block
10.4170496808369, 5.3362024391297,       -1.425
10.4170496808369, 5.3362024391297,       -1.425, 9.44238715723876, 5.49436839884064, -1.58316595971094, 91.4702773561219
*End Instance
**  
*Instance, name=B-1-3, part=Block
10.4170496808369, 5.3362024391297,       -0.875
10.4170496808369, 5.3362024391297,       -0.875, 9.44238715723876, 5.49436839884064, -1.03316595971095, 91.4702773561219
*End Instance
**  
*Instance, name=B-1-2, part=Block
10.4170496808369, 5.3362024391297, -0.324999999999999
10.4170496808369, 5.3362024391297, -0.324999999999999, 9.44238715723876, 5.49436839884064, -0.483165959710944, 91.4702773561219
*End Instance
**  
*Instance, name=B-1-1, part=HalfBlock
-12.8256910813658, 13.0837826918802,       -21.25
-12.8256910813658, 13.0837826918802,       -21.25, -12.195687021233, 13.5378639039308, -20.6199959398672, 228.843812872893
*End Instance
**  
*Instance, name=B-2-1, part=Block
10.8913913298702, 5.17808855614547, -0.0499999999999991
10.8913913298702, 5.17808855614547, -0.0499999999999991, 9.91672880627208, 5.33625451585641, -0.208165959710944, 91.4702773561219
*End Instance
**  
*Instance, name=B-2-2, part=Block
10.8913913298702, 5.17808855614547, -0.599999999999999
10.8913913298702, 5.17808855614547, -0.599999999999999, 9.91672880627208, 5.33625451585641, -0.758165959710944, 91.4702773561219
*End Instance
**  
*Instance, name=B-2-3, part=Block
10.8913913298702, 5.17808855614547,        -1.15
10.8913913298702, 5.17808855614547,        -1.15, 9.91672880627208, 5.33625451585641, -1.30816595971094, 91.4702773561219
*End Instance
**  
*Instance, name=B-2-4, part=Block
10.8913913298702, 5.17808855614547,         -1.7
10.8913913298702, 5.17808855614547,         -1.7, 9.91672880627208, 5.33625451585641, -1.85816595971094, 91.4702773561219
*End Instance
**  
*Instance, name=B-2-5, part=Block
10.8913913298702, 5.17808855614547,        -2.25
10.8913913298702, 5.17808855614547,        -2.25, 9.91672880627208, 5.33625451585641, -2.40816595971094, 91.4702773561219
*End Instance
**  
*Instance, name=B-2-6, part=Block
10.8913913298702, 5.17808855614547,         -2.8
10.8913913298702, 5.17808855614547,         -2.8, 9.91672880627208, 5.33625451585641, -2.95816595971094, 91.4702773561219
*End Instance
**  
*Instance, name=B-2-7, part=Block
10.8913913298702, 5.17808855614547,        -3.35
10.8913913298702, 5.17808855614547,        -3.35, 9.91672880627208, 5.33625451585641, -3.50816595971094, 91.4702773561219
*End Instance
**  
*Instance, name=B-2-8, part=Block
10.8913913298702, 5.17808855614547,         -3.9
10.8913913298702, 5.17808855614547,         -3.9, 9.91672880627208, 5.33625451585641, -4.05816595971094, 91.4702773561219
*End Instance
**  
*Instance, name=B-2-9, part=Block
10.8913913298702, 5.17808855614547,        -4.45
10.8913913298702, 5.17808855614547,        -4.45, 9.91672880627208, 5.33625451585641, -4.60816595971094, 91.4702773561219
*End Instance
**  
*Instance, name=B-3-10, part=HalfBlock
-11.8770077832991, 12.7675549259117,      -25.975
-11.8770077832991, 12.7675549259117,      -25.975, -11.2470037231663, 13.2216361379623, -25.3449959398672, 228.843812872893
*End Instance
**  
*Instance, name=B-5-10, part=HalfBlock
-10.9283244852325, 12.4513271599433,      -25.975
-10.9283244852325, 12.4513271599433,      -25.975, -10.2983204250997, 12.9054083719939, -25.3449959398672, 228.843812872893
*End Instance
**  
*Instance, name=B-7-10, part=HalfBlock
-9.97964118716583, 12.1350993939748,      -25.975
-9.97964118716583, 12.1350993939748,      -25.975, -9.34963712703303, 12.5891806060254, -25.3449959398672, 228.843812872893
*End Instance
**  
*Instance, name=B-9-10, part=HalfBlock
-9.03095788909919, 11.8188716280064,      -25.975
-9.03095788909919, 11.8188716280064,      -25.975, -8.40095382896639, 12.272952840057, -25.3449959398672, 228.843812872893
*End Instance
**  
*Instance, name=B-11-10, part=HalfBlock
-8.08227459103255, 11.5026438620379,      -25.975
-8.08227459103255, 11.5026438620379,      -25.975, -7.45227053089975, 11.9567250740885, -25.3449959398672, 228.843812872893
*End Instance
**  
*Instance, name=B-13-10, part=HalfBlock
-7.13359129296591, 11.1864160960695,      -25.975
-7.13359129296591, 11.1864160960695,      -25.975, -6.50358723283311, 11.6404973081201, -25.3449959398672, 228.843812872893
*End Instance
**  
*Instance, name=B-15-10, part=HalfBlock
-6.18490799489927, 10.870188330101,      -25.975
-6.18490799489927, 10.870188330101,      -25.975, -5.55490393476647, 11.3242695421516, -25.3449959398672, 228.843812872893
*End Instance
**  
*Instance, name=B-17-10, part=HalfBlock
-5.23622469683262, 10.5539605641325,      -25.975
-5.23622469683262, 10.5539605641325,      -25.975, -4.60622063669983, 11.0080417761831, -25.3449959398672, 228.843812872893
*End Instance
**  
*Instance, name=B-19-10, part=HalfBlock
-4.28754139876598, 10.2377327981641,      -25.975
-4.28754139876598, 10.2377327981641,      -25.975, -3.65753733863319, 10.6918140102147, -25.3449959398672, 228.843812872893
*End Instance
**  
*Instance, name=B-21-10, part=HalfBlock
-3.33885810069934, 9.92150503219563,      -25.975
-3.33885810069934, 9.92150503219563,      -25.975, -2.70885404056654, 10.3755862442462, -25.3449959398672, 228.843812872893
*End Instance
**  
*Instance, name=B-3-9, part=Block
11.3657329789036, 5.01997467316124,       -4.175
11.3657329789036, 5.01997467316124,       -4.175, 10.3910704553054, 5.17814063287219, -4.33316595971094, 91.4702773561219
*End Instance
**  
*Instance, name=B-5-9, part=Block
12.3144162769702, 4.70374690719278,       -4.175
12.3144162769702, 4.70374690719278,       -4.175, 11.339753753372, 4.86191286690373, -4.33316595971094, 91.4702773561219
*End Instance
**  
*Instance, name=B-7-9, part=Block
13.2630995750368, 4.38751914122433,       -4.175
13.2630995750368, 4.38751914122433,       -4.175, 12.2884370514387, 4.54568510093527, -4.33316595971094, 91.4702773561219
*End Instance
**  
*Instance, name=B-9-9, part=Block
14.2117828731035, 4.07129137525587,       -4.175
14.2117828731035, 4.07129137525587,       -4.175, 13.2371203495053, 4.22945733496682, -4.33316595971094, 91.4702773561219
*End Instance
**  
*Instance, name=B-11-9, part=Block
15.1604661711701, 3.75506360928742,       -4.175
15.1604661711701, 3.75506360928742,       -4.175, 14.185803647572, 3.91322956899836, -4.33316595971094, 91.4702773561219
*End Instance
**  
*Instance, name=B-13-9, part=Block
16.1091494692368, 3.43883584331896,       -4.175
16.1091494692368, 3.43883584331896,       -4.175, 15.1344869456386, 3.5970018030299, -4.33316595971094, 91.4702773561219
*End Instance
**  
*Instance, name=B-15-9, part=Block
17.0578327673034, 3.1226080773505,       -4.175
17.0578327673034, 3.1226080773505,       -4.175, 16.0831702437052, 3.28077403706145, -4.33316595971094, 91.4702773561219
*End Instance
**  
*Instance, name=B-17-9, part=Block
18.00651606537, 2.80638031138205,       -4.175
18.00651606537, 2.80638031138205,       -4.175, 17.0318535417719, 2.96454627109299, -4.33316595971094, 91.4702773561219
*End Instance
**  
*Instance, name=B-19-9, part=Block
18.9551993634367, 2.49015254541359,       -4.175
18.9551993634367, 2.49015254541359,       -4.175, 17.9805368398385, 2.64831850512454, -4.33316595971094, 91.4702773561219
*End Instance
**  
*Instance, name=B-21-9, part=Block
19.9038826615033, 2.17392477944513,       -4.175
19.9038826615033, 2.17392477944513,       -4.175, 18.9292201379052, 2.33209073915608, -4.33316595971094, 91.4702773561219
*End Instance
**  
*Instance, name=B-4-8, part=Block
11.8400746279369, 4.86186079017701,         -3.9
11.8400746279369, 4.86186079017701,         -3.9, 10.8654121043387, 5.02002674988796, -4.05816595971094, 91.4702773561219
*End Instance
**  
*Instance, name=B-6-8, part=Block
12.7887579260035, 4.54563302420856,         -3.9
12.7887579260035, 4.54563302420856,         -3.9, 11.8140954024054, 4.7037989839195, -4.05816595971094, 91.4702773561219
*End Instance
**  
*Instance, name=B-8-8, part=Block
13.7374412240702, 4.2294052582401,         -3.9
13.7374412240702, 4.2294052582401,         -3.9, 12.762778700472, 4.38757121795105, -4.05816595971094, 91.4702773561219
*End Instance
**  
*Instance, name=B-10-8, part=Block
14.6861245221368, 3.91317749227164,         -3.9
14.6861245221368, 3.91317749227164,         -3.9, 13.7114619985386, 4.07134345198259, -4.05816595971094, 91.4702773561219
*End Instance
**  
*Instance, name=B-12-8, part=Block
15.6348078202034, 3.59694972630319,         -3.9
15.6348078202034, 3.59694972630319,         -3.9, 14.6601452966053, 3.75511568601413, -4.05816595971094, 91.4702773561219
*End Instance
**  
*Instance, name=B-14-8, part=Block
16.5834911182701, 3.28072196033473,         -3.9
16.5834911182701, 3.28072196033473,         -3.9, 15.6088285946719, 3.43888792004568, -4.05816595971094, 91.4702773561219
*End Instance
**  
*Instance, name=B-16-8, part=Block
17.5321744163367, 2.96449419436628,         -3.9
17.5321744163367, 2.96449419436628,         -3.9, 16.5575118927386, 3.12266015407722, -4.05816595971094, 91.4702773561219
*End Instance
**  
*Instance, name=B-18-8, part=Block
18.4808577144034, 2.64826642839782,         -3.9
18.4808577144034, 2.64826642839782,         -3.9, 17.5061951908052, 2.80643238810876, -4.05816595971094, 91.4702773561219
*End Instance
**  
*Instance, name=B-20-8, part=Block
19.42954101247, 2.33203866242936,         -3.9
19.42954101247, 2.33203866242936,         -3.9, 18.4548784888718, 2.49020462214031, -4.05816595971094, 91.4702773561219
*End Instance
**  
*Instance, name=B-22-8, part=Block
20.3782243105366, 2.01581089646091,         -3.9
20.3782243105366, 2.01581089646091,         -3.9, 19.4035617869385, 2.17397685617185, -4.05816595971094, 91.4702773561219
*End Instance
**  
*Instance, name=B-3-8, part=Block
11.3657329789036, 5.01997467316124,       -3.625
11.3657329789036, 5.01997467316124,       -3.625, 10.3910704553054, 5.17814063287219, -3.78316595971094, 91.4702773561219
*End Instance
**  
*Instance, name=B-5-8, part=Block
12.3144162769702, 4.70374690719278,       -3.625
12.3144162769702, 4.70374690719278,       -3.625, 11.339753753372, 4.86191286690373, -3.78316595971094, 91.4702773561219
*End Instance
**  
*Instance, name=B-7-8, part=Block
13.2630995750368, 4.38751914122433,       -3.625
13.2630995750368, 4.38751914122433,       -3.625, 12.2884370514387, 4.54568510093527, -3.78316595971094, 91.4702773561219
*End Instance
**  
*Instance, name=B-9-8, part=Block
14.2117828731035, 4.07129137525587,       -3.625
14.2117828731035, 4.07129137525587,       -3.625, 13.2371203495053, 4.22945733496682, -3.78316595971094, 91.4702773561219
*End Instance
**  
*Instance, name=B-11-8, part=Block
15.1604661711701, 3.75506360928742,       -3.625
15.1604661711701, 3.75506360928742,       -3.625, 14.185803647572, 3.91322956899836, -3.78316595971094, 91.4702773561219
*End Instance
**  
*Instance, name=B-13-8, part=Block
16.1091494692368, 3.43883584331896,       -3.625
16.1091494692368, 3.43883584331896,       -3.625, 15.1344869456386, 3.5970018030299, -3.78316595971094, 91.4702773561219
*End Instance
**  
*Instance, name=B-15-8, part=Block
17.0578327673034, 3.1226080773505,       -3.625
17.0578327673034, 3.1226080773505,       -3.625, 16.0831702437052, 3.28077403706145, -3.78316595971094, 91.4702773561219
*End Instance
**  
*Instance, name=B-17-8, part=Block
18.00651606537, 2.80638031138205,       -3.625
18.00651606537, 2.80638031138205,       -3.625, 17.0318535417719, 2.96454627109299, -3.78316595971094, 91.4702773561219
*End Instance
**  
*Instance, name=B-19-8, part=Block
18.9551993634367, 2.49015254541359,       -3.625
18.9551993634367, 2.49015254541359,       -3.625, 17.9805368398385, 2.64831850512454, -3.78316595971094, 91.4702773561219
*End Instance
**  
*Instance, name=B-21-8, part=Block
19.9038826615033, 2.17392477944513,       -3.625
19.9038826615033, 2.17392477944513,       -3.625, 18.9292201379052, 2.33209073915608, -3.78316595971094, 91.4702773561219
*End Instance
**  
*Instance, name=B-4-6, part=Block
11.8400746279369, 4.86186079017701,         -2.8
11.8400746279369, 4.86186079017701,         -2.8, 10.8654121043387, 5.02002674988796, -2.95816595971094, 91.4702773561219
*End Instance
**  
*Instance, name=B-6-6, part=Block
12.7887579260035, 4.54563302420856,         -2.8
12.7887579260035, 4.54563302420856,         -2.8, 11.8140954024054, 4.7037989839195, -2.95816595971094, 91.4702773561219
*End Instance
**  
*Instance, name=B-8-6, part=Block
13.7374412240702, 4.2294052582401,         -2.8
13.7374412240702, 4.2294052582401,         -2.8, 12.762778700472, 4.38757121795105, -2.95816595971094, 91.4702773561219
*End Instance
**  
*Instance, name=B-10-6, part=Block
14.6861245221368, 3.91317749227164,         -2.8
14.6861245221368, 3.91317749227164,         -2.8, 13.7114619985386, 4.07134345198259, -2.95816595971094, 91.4702773561219
*End Instance
**  
*Instance, name=B-12-6, part=Block
15.6348078202034, 3.59694972630319,         -2.8
15.6348078202034, 3.59694972630319,         -2.8, 14.6601452966053, 3.75511568601413, -2.95816595971094, 91.4702773561219
*End Instance
**  
*Instance, name=B-14-6, part=Block
16.5834911182701, 3.28072196033473,         -2.8
16.5834911182701, 3.28072196033473,         -2.8, 15.6088285946719, 3.43888792004568, -2.95816595971094, 91.4702773561219
*End Instance
**  
*Instance, name=B-16-6, part=Block
17.5321744163367, 2.96449419436628,         -2.8
17.5321744163367, 2.96449419436628,         -2.8, 16.5575118927386, 3.12266015407722, -2.95816595971094, 91.4702773561219
*End Instance
**  
*Instance, name=B-18-6, part=Block
18.4808577144034, 2.64826642839782,         -2.8
18.4808577144034, 2.64826642839782,         -2.8, 17.5061951908052, 2.80643238810876, -2.95816595971094, 91.4702773561219
*End Instance
**  
*Instance, name=B-20-6, part=Block
19.42954101247, 2.33203866242936,         -2.8
19.42954101247, 2.33203866242936,         -2.8, 18.4548784888718, 2.49020462214031, -2.95816595971094, 91.4702773561219
*End Instance
**  
*Instance, name=B-22-6, part=Block
20.3782243105366, 2.01581089646091,         -2.8
20.3782243105366, 2.01581089646091,         -2.8, 19.4035617869385, 2.17397685617185, -2.95816595971094, 91.4702773561219
*End Instance
**  
*Instance, name=B-3-6, part=Block
11.3657329789036, 5.01997467316124,       -2.525
11.3657329789036, 5.01997467316124,       -2.525, 10.3910704553054, 5.17814063287219, -2.68316595971094, 91.4702773561219
*End Instance
**  
*Instance, name=B-5-6, part=Block
12.3144162769702, 4.70374690719278,       -2.525
12.3144162769702, 4.70374690719278,       -2.525, 11.339753753372, 4.86191286690373, -2.68316595971094, 91.4702773561219
*End Instance
**  
*Instance, name=B-7-6, part=Block
13.2630995750368, 4.38751914122433,       -2.525
13.2630995750368, 4.38751914122433,       -2.525, 12.2884370514387, 4.54568510093527, -2.68316595971094, 91.4702773561219
*End Instance
**  
*Instance, name=B-9-6, part=Block
14.2117828731035, 4.07129137525587,       -2.525
14.2117828731035, 4.07129137525587,       -2.525, 13.2371203495053, 4.22945733496682, -2.68316595971094, 91.4702773561219
*End Instance
**  
*Instance, name=B-11-6, part=Block
15.1604661711701, 3.75506360928742,       -2.525
15.1604661711701, 3.75506360928742,       -2.525, 14.185803647572, 3.91322956899836, -2.68316595971094, 91.4702773561219
*End Instance
**  
*Instance, name=B-13-6, part=Block
16.1091494692368, 3.43883584331896,       -2.525
16.1091494692368, 3.43883584331896,       -2.525, 15.1344869456386, 3.5970018030299, -2.68316595971094, 91.4702773561219
*End Instance
**  
*Instance, name=B-15-6, part=Block
17.0578327673034, 3.1226080773505,       -2.525
17.0578327673034, 3.1226080773505,       -2.525, 16.0831702437052, 3.28077403706145, -2.68316595971094, 91.4702773561219
*End Instance
**  
*Instance, name=B-17-6, part=Block
18.00651606537, 2.80638031138205,       -2.525
18.00651606537, 2.80638031138205,       -2.525, 17.0318535417719, 2.96454627109299, -2.68316595971094, 91.4702773561219
*End Instance
**  
*Instance, name=B-19-6, part=Block
18.9551993634367, 2.49015254541359,       -2.525
18.9551993634367, 2.49015254541359,       -2.525, 17.9805368398385, 2.64831850512454, -2.68316595971094, 91.4702773561219
*End Instance
**  
*Instance, name=B-21-6, part=Block
19.9038826615033, 2.17392477944513,       -2.525
19.9038826615033, 2.17392477944513,       -2.525, 18.9292201379052, 2.33209073915608, -2.68316595971094, 91.4702773561219
*End Instance
**  
*Instance, name=B-4-4, part=Block
11.8400746279369, 4.86186079017701,         -1.7
11.8400746279369, 4.86186079017701,         -1.7, 10.8654121043387, 5.02002674988796, -1.85816595971094, 91.4702773561219
*End Instance
**  
*Instance, name=B-6-4, part=Block
12.7887579260035, 4.54563302420856,         -1.7
12.7887579260035, 4.54563302420856,         -1.7, 11.8140954024054, 4.7037989839195, -1.85816595971094, 91.4702773561219
*End Instance
**  
*Instance, name=B-8-4, part=Block
13.7374412240702, 4.2294052582401,         -1.7
13.7374412240702, 4.2294052582401,         -1.7, 12.762778700472, 4.38757121795105, -1.85816595971094, 91.4702773561219
*End Instance
**  
*Instance, name=B-10-4, part=Block
14.6861245221368, 3.91317749227164,         -1.7
14.6861245221368, 3.91317749227164,         -1.7, 13.7114619985386, 4.07134345198259, -1.85816595971094, 91.4702773561219
*End Instance
**  
*Instance, name=B-12-4, part=Block
15.6348078202034, 3.59694972630319,         -1.7
15.6348078202034, 3.59694972630319,         -1.7, 14.6601452966053, 3.75511568601413, -1.85816595971094, 91.4702773561219
*End Instance
**  
*Instance, name=B-14-4, part=Block
16.5834911182701, 3.28072196033473,         -1.7
16.5834911182701, 3.28072196033473,         -1.7, 15.6088285946719, 3.43888792004568, -1.85816595971094, 91.4702773561219
*End Instance
**  
*Instance, name=B-16-4, part=Block
17.5321744163367, 2.96449419436628,         -1.7
17.5321744163367, 2.96449419436628,         -1.7, 16.5575118927386, 3.12266015407722, -1.85816595971094, 91.4702773561219
*End Instance
**  
*Instance, name=B-18-4, part=Block
18.4808577144034, 2.64826642839782,         -1.7
18.4808577144034, 2.64826642839782,         -1.7, 17.5061951908052, 2.80643238810876, -1.85816595971094, 91.4702773561219
*End Instance
**  
*Instance, name=B-20-4, part=Block
19.42954101247, 2.33203866242936,         -1.7
19.42954101247, 2.33203866242936,         -1.7, 18.4548784888718, 2.49020462214031, -1.85816595971094, 91.4702773561219
*End Instance
**  
*Instance, name=B-22-4, part=Block
20.3782243105366, 2.01581089646091,         -1.7
20.3782243105366, 2.01581089646091,         -1.7, 19.4035617869385, 2.17397685617185, -1.85816595971094, 91.4702773561219
*End Instance
**  
*Instance, name=B-3-4, part=Block
11.3657329789036, 5.01997467316124,       -1.425
11.3657329789036, 5.01997467316124,       -1.425, 10.3910704553054, 5.17814063287219, -1.58316595971094, 91.4702773561219
*End Instance
**  
*Instance, name=B-5-4, part=Block
12.3144162769702, 4.70374690719278,       -1.425
12.3144162769702, 4.70374690719278,       -1.425, 11.339753753372, 4.86191286690373, -1.58316595971094, 91.4702773561219
*End Instance
**  
*Instance, name=B-7-4, part=Block
13.2630995750368, 4.38751914122433,       -1.425
13.2630995750368, 4.38751914122433,       -1.425, 12.2884370514387, 4.54568510093527, -1.58316595971094, 91.4702773561219
*End Instance
**  
*Instance, name=B-9-4, part=Block
14.2117828731035, 4.07129137525587,       -1.425
14.2117828731035, 4.07129137525587,       -1.425, 13.2371203495053, 4.22945733496682, -1.58316595971094, 91.4702773561219
*End Instance
**  
*Instance, name=B-11-4, part=Block
15.1604661711701, 3.75506360928742,       -1.425
15.1604661711701, 3.75506360928742,       -1.425, 14.185803647572, 3.91322956899836, -1.58316595971094, 91.4702773561219
*End Instance
**  
*Instance, name=B-13-4, part=Block
16.1091494692368, 3.43883584331896,       -1.425
16.1091494692368, 3.43883584331896,       -1.425, 15.1344869456386, 3.5970018030299, -1.58316595971094, 91.4702773561219
*End Instance
**  
*Instance, name=B-15-4, part=Block
17.0578327673034, 3.1226080773505,       -1.425
17.0578327673034, 3.1226080773505,       -1.425, 16.0831702437052, 3.28077403706145, -1.58316595971094, 91.4702773561219
*End Instance
**  
*Instance, name=B-17-4, part=Block
18.00651606537, 2.80638031138205,       -1.425
18.00651606537, 2.80638031138205,       -1.425, 17.0318535417719, 2.96454627109299, -1.58316595971094, 91.4702773561219
*End Instance
**  
*Instance, name=B-19-4, part=Block
18.9551993634367, 2.49015254541359,       -1.425
18.9551993634367, 2.49015254541359,       -1.425, 17.9805368398385, 2.64831850512454, -1.58316595971094, 91.4702773561219
*End Instance
**  
*Instance, name=B-21-4, part=Block
19.9038826615033, 2.17392477944513,       -1.425
19.9038826615033, 2.17392477944513,       -1.425, 18.9292201379052, 2.33209073915608, -1.58316595971094, 91.4702773561219
*End Instance
**  
*Instance, name=B-4-2, part=Block
11.8400746279369, 4.86186079017701, -0.599999999999999
11.8400746279369, 4.86186079017701, -0.599999999999999, 10.8654121043387, 5.02002674988796, -0.758165959710944, 91.4702773561219
*End Instance
**  
*Instance, name=B-6-2, part=Block
12.7887579260035, 4.54563302420856, -0.599999999999999
12.7887579260035, 4.54563302420856, -0.599999999999999, 11.8140954024054, 4.7037989839195, -0.758165959710944, 91.4702773561219
*End Instance
**  
*Instance, name=B-8-2, part=Block
13.7374412240702, 4.2294052582401, -0.599999999999999
13.7374412240702, 4.2294052582401, -0.599999999999999, 12.762778700472, 4.38757121795105, -0.758165959710944, 91.4702773561219
*End Instance
**  
*Instance, name=B-10-2, part=Block
14.6861245221368, 3.91317749227164, -0.599999999999999
14.6861245221368, 3.91317749227164, -0.599999999999999, 13.7114619985386, 4.07134345198259, -0.758165959710944, 91.4702773561219
*End Instance
**  
*Instance, name=B-12-2, part=Block
15.6348078202034, 3.59694972630319, -0.599999999999999
15.6348078202034, 3.59694972630319, -0.599999999999999, 14.6601452966053, 3.75511568601413, -0.758165959710944, 91.4702773561219
*End Instance
**  
*Instance, name=B-14-2, part=Block
16.5834911182701, 3.28072196033473, -0.599999999999999
16.5834911182701, 3.28072196033473, -0.599999999999999, 15.6088285946719, 3.43888792004568, -0.758165959710944, 91.4702773561219
*End Instance
**  
*Instance, name=B-16-2, part=Block
17.5321744163367, 2.96449419436628, -0.599999999999999
17.5321744163367, 2.96449419436628, -0.599999999999999, 16.5575118927386, 3.12266015407722, -0.758165959710944, 91.4702773561219
*End Instance
**  
*Instance, name=B-18-2, part=Block
18.4808577144034, 2.64826642839782, -0.599999999999999
18.4808577144034, 2.64826642839782, -0.599999999999999, 17.5061951908052, 2.80643238810876, -0.758165959710944, 91.4702773561219
*End Instance
**  
*Instance, name=B-20-2, part=Block
19.42954101247, 2.33203866242936, -0.599999999999999
19.42954101247, 2.33203866242936, -0.599999999999999, 18.4548784888718, 2.49020462214031, -0.758165959710944, 91.4702773561219
*End Instance
**  
*Instance, name=B-22-2, part=Block
20.3782243105366, 2.01581089646091, -0.599999999999999
20.3782243105366, 2.01581089646091, -0.599999999999999, 19.4035617869385, 2.17397685617185, -0.758165959710944, 91.4702773561219
*End Instance
**  
*Instance, name=B-3-2, part=Block
11.3657329789036, 5.01997467316124, -0.324999999999999
11.3657329789036, 5.01997467316124, -0.324999999999999, 10.3910704553054, 5.17814063287219, -0.483165959710944, 91.4702773561219
*End Instance
**  
*Instance, name=B-5-2, part=Block
12.3144162769702, 4.70374690719278, -0.324999999999999
12.3144162769702, 4.70374690719278, -0.324999999999999, 11.339753753372, 4.86191286690373, -0.483165959710944, 91.4702773561219
*End Instance
**  
*Instance, name=B-7-2, part=Block
13.2630995750368, 4.38751914122433, -0.324999999999999
13.2630995750368, 4.38751914122433, -0.324999999999999, 12.2884370514387, 4.54568510093527, -0.483165959710944, 91.4702773561219
*End Instance
**  
*Instance, name=B-9-2, part=Block
14.2117828731035, 4.07129137525587, -0.324999999999999
14.2117828731035, 4.07129137525587, -0.324999999999999, 13.2371203495053, 4.22945733496682, -0.483165959710944, 91.4702773561219
*End Instance
**  
*Instance, name=B-11-2, part=Block
15.1604661711701, 3.75506360928742, -0.324999999999999
15.1604661711701, 3.75506360928742, -0.324999999999999, 14.185803647572, 3.91322956899836, -0.483165959710944, 91.4702773561219
*End Instance
**  
*Instance, name=B-13-2, part=Block
16.1091494692368, 3.43883584331896, -0.324999999999999
16.1091494692368, 3.43883584331896, -0.324999999999999, 15.1344869456386, 3.5970018030299, -0.483165959710944, 91.4702773561219
*End Instance
**  
*Instance, name=B-15-2, part=Block
17.0578327673034, 3.1226080773505, -0.324999999999999
17.0578327673034, 3.1226080773505, -0.324999999999999, 16.0831702437052, 3.28077403706145, -0.483165959710944, 91.4702773561219
*End Instance
**  
*Instance, name=B-17-2, part=Block
18.00651606537, 2.80638031138205, -0.324999999999999
18.00651606537, 2.80638031138205, -0.324999999999999, 17.0318535417719, 2.96454627109299, -0.483165959710944, 91.4702773561219
*End Instance
**  
*Instance, name=B-19-2, part=Block
18.9551993634367, 2.49015254541359, -0.324999999999999
18.9551993634367, 2.49015254541359, -0.324999999999999, 17.9805368398385, 2.64831850512454, -0.483165959710944, 91.4702773561219
*End Instance
**  
*Instance, name=B-21-2, part=Block
19.9038826615033, 2.17392477944513, -0.324999999999999
19.9038826615033, 2.17392477944513, -0.324999999999999, 18.9292201379052, 2.33209073915608, -0.483165959710944, 91.4702773561219
*End Instance
**  
*Instance, name=B-3-1, part=HalfBlock
-11.8770077832991, 12.7675549259117,       -21.25
-11.8770077832991, 12.7675549259117,       -21.25, -11.2470037231663, 13.2216361379623, -20.6199959398672, 228.843812872893
*End Instance
**  
*Instance, name=B-5-1, part=HalfBlock
-10.9283244852325, 12.4513271599433,       -21.25
-10.9283244852325, 12.4513271599433,       -21.25, -10.2983204250997, 12.9054083719939, -20.6199959398672, 228.843812872893
*End Instance
**  
*Instance, name=B-7-1, part=HalfBlock
-9.97964118716583, 12.1350993939748,       -21.25
-9.97964118716583, 12.1350993939748,       -21.25, -9.34963712703303, 12.5891806060254, -20.6199959398672, 228.843812872893
*End Instance
**  
*Instance, name=B-9-1, part=HalfBlock
-9.03095788909919, 11.8188716280064,       -21.25
-9.03095788909919, 11.8188716280064,       -21.25, -8.40095382896639, 12.272952840057, -20.6199959398672, 228.843812872893
*End Instance
**  
*Instance, name=B-11-1, part=HalfBlock
-8.08227459103255, 11.5026438620379,       -21.25
-8.08227459103255, 11.5026438620379,       -21.25, -7.45227053089975, 11.9567250740885, -20.6199959398672, 228.843812872893
*End Instance
**  
*Instance, name=B-13-1, part=HalfBlock
-7.13359129296591, 11.1864160960695,       -21.25
-7.13359129296591, 11.1864160960695,       -21.25, -6.50358723283311, 11.6404973081201, -20.6199959398672, 228.843812872893
*End Instance
**  
*Instance, name=B-15-1, part=HalfBlock
-6.18490799489927, 10.870188330101,       -21.25
-6.18490799489927, 10.870188330101,       -21.25, -5.55490393476647, 11.3242695421516, -20.6199959398672, 228.843812872893
*End Instance
**  
*Instance, name=B-17-1, part=HalfBlock
-5.23622469683262, 10.5539605641325,       -21.25
-5.23622469683262, 10.5539605641325,       -21.25, -4.60622063669983, 11.0080417761831, -20.6199959398672, 228.843812872893
*End Instance
**  
*Instance, name=B-19-1, part=HalfBlock
-4.28754139876598, 10.2377327981641,       -21.25
-4.28754139876598, 10.2377327981641,       -21.25, -3.65753733863319, 10.6918140102147, -20.6199959398672, 228.843812872893
*End Instance
**  
*Instance, name=B-21-1, part=HalfBlock
-3.33885810069934, 9.92150503219563,       -21.25
-3.33885810069934, 9.92150503219563,       -21.25, -2.70885404056654, 10.3755862442462, -20.6199959398672, 228.843812872893
*End Instance
**  
*Instance, name=B-4-9, part=Block
11.8400746279369, 4.86186079017701,        -4.45
11.8400746279369, 4.86186079017701,        -4.45, 10.8654121043387, 5.02002674988796, -4.60816595971094, 91.4702773561219
*End Instance
**  
*Instance, name=B-6-9, part=Block
12.7887579260035, 4.54563302420856,        -4.45
12.7887579260035, 4.54563302420856,        -4.45, 11.8140954024054, 4.7037989839195, -4.60816595971094, 91.4702773561219
*End Instance
**  
*Instance, name=B-8-9, part=Block
13.7374412240702, 4.2294052582401,        -4.45
13.7374412240702, 4.2294052582401,        -4.45, 12.762778700472, 4.38757121795105, -4.60816595971094, 91.4702773561219
*End Instance
**  
*Instance, name=B-10-9, part=Block
14.6861245221368, 3.91317749227164,        -4.45
14.6861245221368, 3.91317749227164,        -4.45, 13.7114619985386, 4.07134345198259, -4.60816595971094, 91.4702773561219
*End Instance
**  
*Instance, name=B-12-9, part=Block
15.6348078202034, 3.59694972630319,        -4.45
15.6348078202034, 3.59694972630319,        -4.45, 14.6601452966053, 3.75511568601413, -4.60816595971094, 91.4702773561219
*End Instance
**  
*Instance, name=B-14-9, part=Block
16.5834911182701, 3.28072196033473,        -4.45
16.5834911182701, 3.28072196033473,        -4.45, 15.6088285946719, 3.43888792004568, -4.60816595971094, 91.4702773561219
*End Instance
**  
*Instance, name=B-16-9, part=Block
17.5321744163367, 2.96449419436628,        -4.45
17.5321744163367, 2.96449419436628,        -4.45, 16.5575118927386, 3.12266015407722, -4.60816595971094, 91.4702773561219
*End Instance
**  
*Instance, name=B-18-9, part=Block
18.4808577144034, 2.64826642839782,        -4.45
18.4808577144034, 2.64826642839782,        -4.45, 17.5061951908052, 2.80643238810876, -4.60816595971094, 91.4702773561219
*End Instance
**  
*Instance, name=B-20-9, part=Block
19.42954101247, 2.33203866242936,        -4.45
19.42954101247, 2.33203866242936,        -4.45, 18.4548784888718, 2.49020462214031, -4.60816595971094, 91.4702773561219
*End Instance
**  
*Instance, name=B-22-9, part=Block
20.3782243105366, 2.01581089646091,        -4.45
20.3782243105366, 2.01581089646091,        -4.45, 19.4035617869385, 2.17397685617185, -4.60816595971094, 91.4702773561219
*End Instance
**  
*Instance, name=B-4-7, part=Block
11.8400746279369, 4.86186079017701,        -3.35
11.8400746279369, 4.86186079017701,        -3.35, 10.8654121043387, 5.02002674988796, -3.50816595971094, 91.4702773561219
*End Instance
**  
*Instance, name=B-6-7, part=Block
12.7887579260035, 4.54563302420856,        -3.35
12.7887579260035, 4.54563302420856,        -3.35, 11.8140954024054, 4.7037989839195, -3.50816595971094, 91.4702773561219
*End Instance
**  
*Instance, name=B-8-7, part=Block
13.7374412240702, 4.2294052582401,        -3.35
13.7374412240702, 4.2294052582401,        -3.35, 12.762778700472, 4.38757121795105, -3.50816595971094, 91.4702773561219
*End Instance
**  
*Instance, name=B-10-7, part=Block
14.6861245221368, 3.91317749227164,        -3.35
14.6861245221368, 3.91317749227164,        -3.35, 13.7114619985386, 4.07134345198259, -3.50816595971094, 91.4702773561219
*End Instance
**  
*Instance, name=B-12-7, part=Block
15.6348078202034, 3.59694972630319,        -3.35
15.6348078202034, 3.59694972630319,        -3.35, 14.6601452966053, 3.75511568601413, -3.50816595971094, 91.4702773561219
*End Instance
**  
*Instance, name=B-14-7, part=Block
16.5834911182701, 3.28072196033473,        -3.35
16.5834911182701, 3.28072196033473,        -3.35, 15.6088285946719, 3.43888792004568, -3.50816595971094, 91.4702773561219
*End Instance
**  
*Instance, name=B-16-7, part=Block
17.5321744163367, 2.96449419436628,        -3.35
17.5321744163367, 2.96449419436628,        -3.35, 16.5575118927386, 3.12266015407722, -3.50816595971094, 91.4702773561219
*End Instance
**  
*Instance, name=B-18-7, part=Block
18.4808577144034, 2.64826642839782,        -3.35
18.4808577144034, 2.64826642839782,        -3.35, 17.5061951908052, 2.80643238810876, -3.50816595971094, 91.4702773561219
*End Instance
**  
*Instance, name=B-20-7, part=Block
19.42954101247, 2.33203866242936,        -3.35
19.42954101247, 2.33203866242936,        -3.35, 18.4548784888718, 2.49020462214031, -3.50816595971094, 91.4702773561219
*End Instance
**  
*Instance, name=B-22-7, part=Block
20.3782243105366, 2.01581089646091,        -3.35
20.3782243105366, 2.01581089646091,        -3.35, 19.4035617869385, 2.17397685617185, -3.50816595971094, 91.4702773561219
*End Instance
**  
*Instance, name=B-3-7, part=Block
11.3657329789036, 5.01997467316124,       -3.075
11.3657329789036, 5.01997467316124,       -3.075, 10.3910704553054, 5.17814063287219, -3.23316595971095, 91.4702773561219
*End Instance
**  
*Instance, name=B-5-7, part=Block
12.3144162769702, 4.70374690719278,       -3.075
12.3144162769702, 4.70374690719278,       -3.075, 11.339753753372, 4.86191286690373, -3.23316595971095, 91.4702773561219
*End Instance
**  
*Instance, name=B-7-7, part=Block
13.2630995750368, 4.38751914122433,       -3.075
13.2630995750368, 4.38751914122433,       -3.075, 12.2884370514387, 4.54568510093527, -3.23316595971095, 91.4702773561219
*End Instance
**  
*Instance, name=B-9-7, part=Block
14.2117828731035, 4.07129137525587,       -3.075
14.2117828731035, 4.07129137525587,       -3.075, 13.2371203495053, 4.22945733496682, -3.23316595971095, 91.4702773561219
*End Instance
**  
*Instance, name=B-11-7, part=Block
15.1604661711701, 3.75506360928742,       -3.075
15.1604661711701, 3.75506360928742,       -3.075, 14.185803647572, 3.91322956899836, -3.23316595971095, 91.4702773561219
*End Instance
**  
*Instance, name=B-13-7, part=Block
16.1091494692368, 3.43883584331896,       -3.075
16.1091494692368, 3.43883584331896,       -3.075, 15.1344869456386, 3.5970018030299, -3.23316595971095, 91.4702773561219
*End Instance
**  
*Instance, name=B-15-7, part=Block
17.0578327673034, 3.1226080773505,       -3.075
17.0578327673034, 3.1226080773505,       -3.075, 16.0831702437052, 3.28077403706145, -3.23316595971095, 91.4702773561219
*End Instance
**  
*Instance, name=B-17-7, part=Block
18.00651606537, 2.80638031138205,       -3.075
18.00651606537, 2.80638031138205,       -3.075, 17.0318535417719, 2.96454627109299, -3.23316595971095, 91.4702773561219
*End Instance
**  
*Instance, name=B-19-7, part=Block
18.9551993634367, 2.49015254541359,       -3.075
18.9551993634367, 2.49015254541359,       -3.075, 17.9805368398385, 2.64831850512454, -3.23316595971095, 91.4702773561219
*End Instance
**  
*Instance, name=B-21-7, part=Block
19.9038826615033, 2.17392477944513,       -3.075
19.9038826615033, 2.17392477944513,       -3.075, 18.9292201379052, 2.33209073915608, -3.23316595971095, 91.4702773561219
*End Instance
**  
*Instance, name=B-4-5, part=Block
11.8400746279369, 4.86186079017701,        -2.25
11.8400746279369, 4.86186079017701,        -2.25, 10.8654121043387, 5.02002674988796, -2.40816595971094, 91.4702773561219
*End Instance
**  
*Instance, name=B-6-5, part=Block
12.7887579260035, 4.54563302420856,        -2.25
12.7887579260035, 4.54563302420856,        -2.25, 11.8140954024054, 4.7037989839195, -2.40816595971094, 91.4702773561219
*End Instance
**  
*Instance, name=B-8-5, part=Block
13.7374412240702, 4.2294052582401,        -2.25
13.7374412240702, 4.2294052582401,        -2.25, 12.762778700472, 4.38757121795105, -2.40816595971094, 91.4702773561219
*End Instance
**  
*Instance, name=B-10-5, part=Block
14.6861245221368, 3.91317749227164,        -2.25
14.6861245221368, 3.91317749227164,        -2.25, 13.7114619985386, 4.07134345198259, -2.40816595971094, 91.4702773561219
*End Instance
**  
*Instance, name=B-12-5, part=Block
15.6348078202034, 3.59694972630319,        -2.25
15.6348078202034, 3.59694972630319,        -2.25, 14.6601452966053, 3.75511568601413, -2.40816595971094, 91.4702773561219
*End Instance
**  
*Instance, name=B-14-5, part=Block
16.5834911182701, 3.28072196033473,        -2.25
16.5834911182701, 3.28072196033473,        -2.25, 15.6088285946719, 3.43888792004568, -2.40816595971094, 91.4702773561219
*End Instance
**  
*Instance, name=B-16-5, part=Block
17.5321744163367, 2.96449419436628,        -2.25
17.5321744163367, 2.96449419436628,        -2.25, 16.5575118927386, 3.12266015407722, -2.40816595971094, 91.4702773561219
*End Instance
**  
*Instance, name=B-18-5, part=Block
18.4808577144034, 2.64826642839782,        -2.25
18.4808577144034, 2.64826642839782,        -2.25, 17.5061951908052, 2.80643238810876, -2.40816595971094, 91.4702773561219
*End Instance
**  
*Instance, name=B-20-5, part=Block
19.42954101247, 2.33203866242936,        -2.25
19.42954101247, 2.33203866242936,        -2.25, 18.4548784888718, 2.49020462214031, -2.40816595971094, 91.4702773561219
*End Instance
**  
*Instance, name=B-22-5, part=Block
20.3782243105366, 2.01581089646091,        -2.25
20.3782243105366, 2.01581089646091,        -2.25, 19.4035617869385, 2.17397685617185, -2.40816595971094, 91.4702773561219
*End Instance
**  
*Instance, name=B-4-1, part=Block
11.8400746279369, 4.86186079017701, -0.0499999999999991
11.8400746279369, 4.86186079017701, -0.0499999999999991, 10.8654121043387, 5.02002674988796, -0.208165959710944, 91.4702773561219
*End Instance
**  
*Instance, name=B-6-1, part=Block
12.7887579260035, 4.54563302420856, -0.0499999999999991
12.7887579260035, 4.54563302420856, -0.0499999999999991, 11.8140954024054, 4.7037989839195, -0.208165959710944, 91.4702773561219
*End Instance
**  
*Instance, name=B-8-1, part=Block
13.7374412240702, 4.2294052582401, -0.0499999999999991
13.7374412240702, 4.2294052582401, -0.0499999999999991, 12.762778700472, 4.38757121795105, -0.208165959710944, 91.4702773561219
*End Instance
**  
*Instance, name=B-10-1, part=Block
14.6861245221368, 3.91317749227164, -0.0499999999999991
14.6861245221368, 3.91317749227164, -0.0499999999999991, 13.7114619985386, 4.07134345198259, -0.208165959710944, 91.4702773561219
*End Instance
**  
*Instance, name=B-12-1, part=Block
15.6348078202034, 3.59694972630319, -0.0499999999999991
15.6348078202034, 3.59694972630319, -0.0499999999999991, 14.6601452966053, 3.75511568601413, -0.208165959710944, 91.4702773561219
*End Instance
**  
*Instance, name=B-14-1, part=Block
16.5834911182701, 3.28072196033473, -0.0499999999999991
16.5834911182701, 3.28072196033473, -0.0499999999999991, 15.6088285946719, 3.43888792004568, -0.208165959710944, 91.4702773561219
*End Instance
**  
*Instance, name=B-16-1, part=Block
17.5321744163367, 2.96449419436628, -0.0499999999999991
17.5321744163367, 2.96449419436628, -0.0499999999999991, 16.5575118927386, 3.12266015407722, -0.208165959710944, 91.4702773561219
*End Instance
**  
*Instance, name=B-18-1, part=Block
18.4808577144034, 2.64826642839782, -0.0499999999999991
18.4808577144034, 2.64826642839782, -0.0499999999999991, 17.5061951908052, 2.80643238810876, -0.208165959710944, 91.4702773561219
*End Instance
**  
*Instance, name=B-20-1, part=Block
19.42954101247, 2.33203866242936, -0.0499999999999991
19.42954101247, 2.33203866242936, -0.0499999999999991, 18.4548784888718, 2.49020462214031, -0.208165959710944, 91.4702773561219
*End Instance
**  
*Instance, name=B-22-1, part=Block
20.3782243105366, 2.01581089646091, -0.0499999999999991
20.3782243105366, 2.01581089646091, -0.0499999999999991, 19.4035617869385, 2.17397685617185, -0.208165959710944, 91.4702773561219
*End Instance
**  
*Instance, name=B-3-5, part=Block
11.3657329789036, 5.01997467316124,       -1.975
11.3657329789036, 5.01997467316124,       -1.975, 10.3910704553054, 5.17814063287219, -2.13316595971094, 91.4702773561219
*End Instance
**  
*Instance, name=B-5-5, part=Block
12.3144162769702, 4.70374690719278,       -1.975
12.3144162769702, 4.70374690719278,       -1.975, 11.339753753372, 4.86191286690373, -2.13316595971094, 91.4702773561219
*End Instance
**  
*Instance, name=B-7-5, part=Block
13.2630995750368, 4.38751914122433,       -1.975
13.2630995750368, 4.38751914122433,       -1.975, 12.2884370514387, 4.54568510093527, -2.13316595971094, 91.4702773561219
*End Instance
**  
*Instance, name=B-9-5, part=Block
14.2117828731035, 4.07129137525587,       -1.975
14.2117828731035, 4.07129137525587,       -1.975, 13.2371203495053, 4.22945733496682, -2.13316595971094, 91.4702773561219
*End Instance
**  
*Instance, name=B-11-5, part=Block
15.1604661711701, 3.75506360928742,       -1.975
15.1604661711701, 3.75506360928742,       -1.975, 14.185803647572, 3.91322956899836, -2.13316595971094, 91.4702773561219
*End Instance
**  
*Instance, name=B-13-5, part=Block
16.1091494692368, 3.43883584331896,       -1.975
16.1091494692368, 3.43883584331896,       -1.975, 15.1344869456386, 3.5970018030299, -2.13316595971094, 91.4702773561219
*End Instance
**  
*Instance, name=B-15-5, part=Block
17.0578327673034, 3.1226080773505,       -1.975
17.0578327673034, 3.1226080773505,       -1.975, 16.0831702437052, 3.28077403706145, -2.13316595971094, 91.4702773561219
*End Instance
**  
*Instance, name=B-17-5, part=Block
18.00651606537, 2.80638031138205,       -1.975
18.00651606537, 2.80638031138205,       -1.975, 17.0318535417719, 2.96454627109299, -2.13316595971094, 91.4702773561219
*End Instance
**  
*Instance, name=B-19-5, part=Block
18.9551993634367, 2.49015254541359,       -1.975
18.9551993634367, 2.49015254541359,       -1.975, 17.9805368398385, 2.64831850512454, -2.13316595971094, 91.4702773561219
*End Instance
**  
*Instance, name=B-21-5, part=Block
19.9038826615033, 2.17392477944513,       -1.975
19.9038826615033, 2.17392477944513,       -1.975, 18.9292201379052, 2.33209073915608, -2.13316595971094, 91.4702773561219
*End Instance
**  
*Instance, name=B-4-3, part=Block
11.8400746279369, 4.86186079017701,        -1.15
11.8400746279369, 4.86186079017701,        -1.15, 10.8654121043387, 5.02002674988796, -1.30816595971094, 91.4702773561219
*End Instance
**  
*Instance, name=B-6-3, part=Block
12.7887579260035, 4.54563302420856,        -1.15
12.7887579260035, 4.54563302420856,        -1.15, 11.8140954024054, 4.7037989839195, -1.30816595971094, 91.4702773561219
*End Instance
**  
*Instance, name=B-8-3, part=Block
13.7374412240702, 4.2294052582401,        -1.15
13.7374412240702, 4.2294052582401,        -1.15, 12.762778700472, 4.38757121795105, -1.30816595971094, 91.4702773561219
*End Instance
**  
*Instance, name=B-10-3, part=Block
14.6861245221368, 3.91317749227164,        -1.15
14.6861245221368, 3.91317749227164,        -1.15, 13.7114619985386, 4.07134345198259, -1.30816595971094, 91.4702773561219
*End Instance
**  
*Instance, name=B-12-3, part=Block
15.6348078202034, 3.59694972630319,        -1.15
15.6348078202034, 3.59694972630319,        -1.15, 14.6601452966053, 3.75511568601413, -1.30816595971094, 91.4702773561219
*End Instance
**  
*Instance, name=B-14-3, part=Block
16.5834911182701, 3.28072196033473,        -1.15
16.5834911182701, 3.28072196033473,        -1.15, 15.6088285946719, 3.43888792004568, -1.30816595971094, 91.4702773561219
*End Instance
**  
*Instance, name=B-16-3, part=Block
17.5321744163367, 2.96449419436628,        -1.15
17.5321744163367, 2.96449419436628,        -1.15, 16.5575118927386, 3.12266015407722, -1.30816595971094, 91.4702773561219
*End Instance
**  
*Instance, name=B-18-3, part=Block
18.4808577144034, 2.64826642839782,        -1.15
18.4808577144034, 2.64826642839782,        -1.15, 17.5061951908052, 2.80643238810876, -1.30816595971094, 91.4702773561219
*End Instance
**  
*Instance, name=B-20-3, part=Block
19.42954101247, 2.33203866242936,        -1.15
19.42954101247, 2.33203866242936,        -1.15, 18.4548784888718, 2.49020462214031, -1.30816595971094, 91.4702773561219
*End Instance
**  
*Instance, name=B-22-3, part=Block
20.3782243105366, 2.01581089646091,        -1.15
20.3782243105366, 2.01581089646091,        -1.15, 19.4035617869385, 2.17397685617185, -1.30816595971094, 91.4702773561219
*End Instance
**  
*Instance, name=B-3-3, part=Block
11.3657329789036, 5.01997467316124,       -0.875
11.3657329789036, 5.01997467316124,       -0.875, 10.3910704553054, 5.17814063287219, -1.03316595971095, 91.4702773561219
*End Instance
**  
*Instance, name=B-5-3, part=Block
12.3144162769702, 4.70374690719278,       -0.875
12.3144162769702, 4.70374690719278,       -0.875, 11.339753753372, 4.86191286690373, -1.03316595971095, 91.4702773561219
*End Instance
**  
*Instance, name=B-7-3, part=Block
13.2630995750368, 4.38751914122433,       -0.875
13.2630995750368, 4.38751914122433,       -0.875, 12.2884370514387, 4.54568510093527, -1.03316595971095, 91.4702773561219
*End Instance
**  
*Instance, name=B-9-3, part=Block
14.2117828731035, 4.07129137525587,       -0.875
14.2117828731035, 4.07129137525587,       -0.875, 13.2371203495053, 4.22945733496682, -1.03316595971095, 91.4702773561219
*End Instance
**  
*Instance, name=B-11-3, part=Block
15.1604661711701, 3.75506360928742,       -0.875
15.1604661711701, 3.75506360928742,       -0.875, 14.185803647572, 3.91322956899836, -1.03316595971095, 91.4702773561219
*End Instance
**  
*Instance, name=B-13-3, part=Block
16.1091494692368, 3.43883584331896,       -0.875
16.1091494692368, 3.43883584331896,       -0.875, 15.1344869456386, 3.5970018030299, -1.03316595971095, 91.4702773561219
*End Instance
**  
*Instance, name=B-15-3, part=Block
17.0578327673034, 3.1226080773505,       -0.875
17.0578327673034, 3.1226080773505,       -0.875, 16.0831702437052, 3.28077403706145, -1.03316595971095, 91.4702773561219
*End Instance
**  
*Instance, name=B-17-3, part=Block
18.00651606537, 2.80638031138205,       -0.875
18.00651606537, 2.80638031138205,       -0.875, 17.0318535417719, 2.96454627109299, -1.03316595971095, 91.4702773561219
*End Instance
**  
*Instance, name=B-19-3, part=Block
18.9551993634367, 2.49015254541359,       -0.875
18.9551993634367, 2.49015254541359,       -0.875, 17.9805368398385, 2.64831850512454, -1.03316595971095, 91.4702773561219
*End Instance
**  
*Instance, name=B-21-3, part=Block
19.9038826615033, 2.17392477944513,       -0.875
19.9038826615033, 2.17392477944513,       -0.875, 18.9292201379052, 2.33209073915608, -1.03316595971095, 91.4702773561219
*End Instance
**  
*Instance, name=Dike, part=DikeRigid
   67.511216,   -16.666352, -2.50000000000001
   67.511216,   -16.666352, -2.50000000000001,    67.511216,   -15.666352, -2.50000000000001,         180.
*Surface, type=CYLINDER, name=Surf-2
START, 40.611216042617, 16.666351872149
 LINE, 46.611216042617, 18.666351872149
 LINE, 46.6586502075094, 18.524049377438
 LINE, 57.1586502075196, 22.0240493774414
 LINE, 57.111216042617, 22.166351872149
 LINE, 65.511216042617, 24.966351872149
 LINE, 67.511216042617, 24.966351872149
 LINE, 67.511216042617, 16.666351872149
 LINE, 40.611216042617, 16.666351872149
*End Instance
**  
*Instance, name=Wall-1, part=Wall
      -37.25,          3.5,         -0.5
      -37.25,          3.5,         -0.5, -38.2500000126881,          3.5,         -0.5, 89.9999992730282
*Surface, type=CYLINDER, name=Surf-Wall
START,        37.25,          4.5
 LINE,        37.25,           5.
 LINE,        63.75,           5.
 LINE,        63.75,          4.5
 LINE,        37.25,          4.5
*End Instance
**  
*Instance, name=Wall-2, part=Wall
      -37.25,          3.5,           5.
      -37.25,          3.5,           5., -38.2500000126881,          3.5,           5., 89.9999992730282
*Surface, type=CYLINDER, name=Surf-Wall
START,        37.25,          4.5
 LINE,        37.25,           5.
 LINE,        63.75,           5.
 LINE,        63.75,          4.5
 LINE,        37.25,          4.5
*End Instance
**  
*Node
      1,           0.,           0.,           0.
*Node
      2,           0.,           0.,           1.
*Node
      3,           0.,           0.,           2.
*Nset, nset=_PickedSet426, internal, instance=B-1-10, generate
   1,  120,    1
*Nset, nset=_PickedSet426, internal, instance=B-1-9, generate
   1,  192,    1
*Nset, nset=_PickedSet426, internal, instance=B-1-8, generate
   1,  192,    1
*Nset, nset=_PickedSet426, internal, instance=B-1-6, generate
   1,  192,    1
*Nset, nset=_PickedSet426, internal, instance=B-2-3, generate
   1,  192,    1
*Nset, nset=_PickedSet426, internal, instance=B-21-10, generate
   1,  120,    1
*Nset, nset=_PickedSet426, internal, instance=B-6-6, generate
   1,  192,    1
*Nset, nset=_PickedSet426, internal, instance=B-13-1, generate
   1,  120,    1
*Nset, nset=_PickedSet426, internal, instance=B-21-5, generate
   1,  192,    1
*Nset, nset=_PickedSet426, internal, instance=B-9-4, generate
   1,  192,    1
*Nset, nset=_PickedSet426, internal, instance=B-17-7, generate
   1,  192,    1
*Nset, nset=_PickedSet426, internal, instance=B-14-8, generate
   1,  192,    1
*Nset, nset=_PickedSet426, internal, instance=B-17-6, generate
   1,  192,    1
*Nset, nset=_PickedSet426, internal, instance=B-6-7, generate
   1,  192,    1
*Nset, nset=_PickedSet426, internal, instance=B-13-3, generate
   1,  192,    1
*Nset, nset=_PickedSet426, internal, instance=B-22-2, generate
   1,  192,    1
*Nset, nset=_PickedSet426, internal, instance=B-10-1, generate
   1,  192,    1
*Nset, nset=_PickedSet426, internal, instance=B-5-10, generate
   1,  120,    1
*Nset, nset=_PickedSet426, internal, instance=B-17-9, generate
   1,  192,    1
*Nset, nset=_PickedSet426, internal, instance=B-22-6, generate
   1,  192,    1
*Nset, nset=_PickedSet426, internal, instance=B-10-9, generate
   1,  192,    1
*Nset, nset=_PickedSet426, internal, instance=B-18-3, generate
   1,  192,    1
*Nset, nset=_PickedSet426, internal, instance=B-6-2, generate
   1,  192,    1
*Nset, nset=_PickedSet426, internal, instance=B-14-5, generate
   1,  192,    1
*Nset, nset=_PickedSet426, internal, instance=B-9-8, generate
   1,  192,    1
*Nset, nset=_PickedSet426, internal, instance=B-14-4, generate
   1,  192,    1
*Nset, nset=_PickedSet426, internal, instance=B-22-7, generate
   1,  192,    1
*Nset, nset=_PickedSet426, internal, instance=B-17-2, generate
   1,  192,    1
*Nset, nset=_PickedSet426, internal, instance=B-5-5, generate
   1,  192,    1
*Nset, nset=_PickedSet426, internal, instance=B-1-2, generate
   1,  192,    1
*Nset, nset=_PickedSet426, internal, instance=B-2-7, generate
   1,  192,    1
*Nset, nset=_PickedSet426, internal, instance=B-9-9, generate
   1,  192,    1
*Nset, nset=_PickedSet426, internal, instance=B-14-6, generate
   1,  192,    1
*Nset, nset=_PickedSet426, internal, instance=B-21-1, generate
   1,  120,    1
*Nset, nset=_PickedSet426, internal, instance=B-10-3, generate
   1,  192,    1
*Nset, nset=_PickedSet426, internal, instance=B-17-4, generate
   1,  192,    1
*Nset, nset=_PickedSet426, internal, instance=B-6-5, generate
   1,  192,    1
*Nset, nset=_PickedSet426, internal, instance=B-22-8, generate
   1,  192,    1
*Nset, nset=_PickedSet426, internal, instance=B-6-4, generate
   1,  192,    1
*Nset, nset=_PickedSet426, internal, instance=B-14-7, generate
   1,  192,    1
*Nset, nset=_PickedSet426, internal, instance=B-21-3, generate
   1,  192,    1
*Nset, nset=_PickedSet426, internal, instance=B-9-2, generate
   1,  192,    1
*Nset, nset=_PickedSet426, internal, instance=B-18-1, generate
   1,  192,    1
*Nset, nset=_PickedSet426, internal, instance=B-13-10, generate
   1,  120,    1
*Nset, nset=_PickedSet426, internal, instance=B-6-8, generate
   1,  192,    1
*Nset, nset=_PickedSet426, internal, instance=B-9-6, generate
   1,  192,    1
*Nset, nset=_PickedSet426, internal, instance=B-18-9, generate
   1,  192,    1
*Nset, nset=_PickedSet426, internal, instance=B-5-3, generate
   1,  192,    1
*Nset, nset=_PickedSet426, internal, instance=B-14-2, generate
   1,  192,    1
*Nset, nset=_PickedSet426, internal, instance=B-22-5, generate
   1,  192,    1
*Nset, nset=_PickedSet426, internal, instance=B-17-8, generate
   1,  192,    1
*Nset, nset=_PickedSet426, internal, instance=B-22-4, generate
   1,  192,    1
*Nset, nset=_PickedSet426, internal, instance=B-9-7, generate
   1,  192,    1
*Nset, nset=_PickedSet426, internal, instance=B-5-1, generate
   1,  120,    1
*Nset, nset=_PickedSet426, internal, instance=B-13-5, generate
   1,  192,    1
*Nset, nset=_PickedSet426, internal, instance=B-1-4, generate
   1,  192,    1
*Nset, nset=_PickedSet426, internal, instance=B-2-5, generate
   1,  192,    1
*Nset, nset=_PickedSet426, internal, instance=B-5-9, generate
   1,  192,    1
*Nset, nset=_PickedSet426, internal, instance=B-10-6, generate
   1,  192,    1
*Nset, nset=_PickedSet426, internal, instance=B-17-1, generate
   1,  120,    1
*Nset, nset=_PickedSet426, internal, instance=B-6-3, generate
   1,  192,    1
*Nset, nset=_PickedSet426, internal, instance=B-13-4, generate
   1,  192,    1
*Nset, nset=_PickedSet426, internal, instance=B-21-7, generate
   1,  192,    1
*Nset, nset=_PickedSet426, internal, instance=B-18-8, generate
   1,  192,    1
*Nset, nset=_PickedSet426, internal, instance=B-21-6, generate
   1,  192,    1
*Nset, nset=_PickedSet426, internal, instance=B-10-7, generate
   1,  192,    1
*Nset, nset=_PickedSet426, internal, instance=B-17-3, generate
   1,  192,    1
*Nset, nset=_PickedSet426, internal, instance=B-5-2, generate
   1,  192,    1
*Nset, nset=_PickedSet426, internal, instance=B-14-1, generate
   1,  192,    1
*Nset, nset=_PickedSet426, internal, instance=B-9-10, generate
   1,  120,    1
*Nset, nset=_PickedSet426, internal, instance=B-21-9, generate
   1,  192,    1
*Nset, nset=_PickedSet426, internal, instance=B-5-6, generate
   1,  192,    1
*Nset, nset=_PickedSet426, internal, instance=B-14-9, generate
   1,  192,    1
*Nset, nset=_PickedSet426, internal, instance=B-22-3, generate
   1,  192,    1
*Nset, nset=_PickedSet426, internal, instance=B-10-2, generate
   1,  192,    1
*Nset, nset=_PickedSet426, internal, instance=B-18-5, generate
   1,  192,    1
*Nset, nset=_PickedSet426, internal, instance=B-13-8, generate
   1,  192,    1
*Nset, nset=_PickedSet426, internal, instance=B-18-4, generate
   1,  192,    1
*Nset, nset=_PickedSet426, internal, instance=B-5-7, generate
   1,  192,    1
*Nset, nset=_PickedSet426, internal, instance=B-21-2, generate
   1,  192,    1
*Nset, nset=_PickedSet426, internal, instance=B-9-5, generate
   1,  192,    1
*Nset, nset=_PickedSet426, internal, instance=B-2-1, generate
   1,  192,    1
*Nset, nset=_PickedSet426, internal, instance=B-2-9, generate
   1,  192,    1
*Nset, nset=_PickedSet426, internal, instance=B-13-9, generate
   1,  192,    1
*Nset, nset=_PickedSet426, internal, instance=B-18-6, generate
   1,  192,    1
*Nset, nset=_PickedSet426, internal, instance=B-6-9, generate
   1,  192,    1
*Nset, nset=_PickedSet426, internal, instance=B-14-3, generate
   1,  192,    1
*Nset, nset=_PickedSet426, internal, instance=B-21-4, generate
   1,  192,    1
*Nset, nset=_PickedSet426, internal, instance=B-10-5, generate
   1,  192,    1
*Nset, nset=_PickedSet426, internal, instance=B-5-8, generate
   1,  192,    1
*Nset, nset=_PickedSet426, internal, instance=B-10-4, generate
   1,  192,    1
*Nset, nset=_PickedSet426, internal, instance=B-18-7, generate
   1,  192,    1
*Nset, nset=_PickedSet426, internal, instance=B-13-2, generate
   1,  192,    1
*Nset, nset=_PickedSet426, internal, instance=B-22-1, generate
   1,  192,    1
*Nset, nset=_PickedSet426, internal, instance=B-17-10, generate
   1,  120,    1
*Nset, nset=_PickedSet426, internal, instance=B-10-8, generate
   1,  192,    1
*Nset, nset=_PickedSet426, internal, instance=B-13-6, generate
   1,  192,    1
*Nset, nset=_PickedSet426, internal, instance=B-22-9, generate
   1,  192,    1
*Nset, nset=_PickedSet426, internal, instance=B-9-3, generate
   1,  192,    1
*Nset, nset=_PickedSet426, internal, instance=B-18-2, generate
   1,  192,    1
*Nset, nset=_PickedSet426, internal, instance=B-6-1, generate
   1,  192,    1
*Nset, nset=_PickedSet426, internal, instance=B-21-8, generate
   1,  192,    1
*Nset, nset=_PickedSet426, internal, instance=B-5-4, generate
   1,  192,    1
*Nset, nset=_PickedSet426, internal, instance=B-13-7, generate
   1,  192,    1
*Nset, nset=_PickedSet426, internal, instance=B-9-1, generate
   1,  120,    1
*Nset, nset=_PickedSet426, internal, instance=B-17-5, generate
   1,  192,    1
*Nset, nset=_PickedSet426, internal, instance=B-1-7, generate
   1,  192,    1
*Nset, nset=_PickedSet426, internal, instance=B-1-5, generate
   1,  192,    1
*Nset, nset=_PickedSet426, internal, instance=B-2-4, generate
   1,  192,    1
*Nset, nset=_PickedSet426, internal, instance=B-3-9, generate
   1,  192,    1
*Nset, nset=_PickedSet426, internal, instance=B-8-6, generate
   1,  192,    1
*Nset, nset=_PickedSet426, internal, instance=B-15-1, generate
   1,  120,    1
*Nset, nset=_PickedSet426, internal, instance=B-4-3, generate
   1,  192,    1
*Nset, nset=_PickedSet426, internal, instance=B-11-4, generate
   1,  192,    1
*Nset, nset=_PickedSet426, internal, instance=B-19-7, generate
   1,  192,    1
*Nset, nset=_PickedSet426, internal, instance=B-16-8, generate
   1,  192,    1
*Nset, nset=_PickedSet426, internal, instance=B-19-6, generate
   1,  192,    1
*Nset, nset=_PickedSet426, internal, instance=B-8-7, generate
   1,  192,    1
*Nset, nset=_PickedSet426, internal, instance=B-15-3, generate
   1,  192,    1
*Nset, nset=_PickedSet426, internal, instance=B-3-2, generate
   1,  192,    1
*Nset, nset=_PickedSet426, internal, instance=B-12-1, generate
   1,  192,    1
*Nset, nset=_PickedSet426, internal, instance=B-7-10, generate
   1,  120,    1
*Nset, nset=_PickedSet426, internal, instance=B-19-9, generate
   1,  192,    1
*Nset, nset=_PickedSet426, internal, instance=B-3-6, generate
   1,  192,    1
*Nset, nset=_PickedSet426, internal, instance=B-12-9, generate
   1,  192,    1
*Nset, nset=_PickedSet426, internal, instance=B-20-3, generate
   1,  192,    1
*Nset, nset=_PickedSet426, internal, instance=B-8-2, generate
   1,  192,    1
*Nset, nset=_PickedSet426, internal, instance=B-16-5, generate
   1,  192,    1
*Nset, nset=_PickedSet426, internal, instance=B-11-8, generate
   1,  192,    1
*Nset, nset=_PickedSet426, internal, instance=B-16-4, generate
   1,  192,    1
*Nset, nset=_PickedSet426, internal, instance=B-3-7, generate
   1,  192,    1
*Nset, nset=_PickedSet426, internal, instance=B-19-2, generate
   1,  192,    1
*Nset, nset=_PickedSet426, internal, instance=B-7-5, generate
   1,  192,    1
*Nset, nset=_PickedSet426, internal, instance=B-1-1, generate
   1,  120,    1
*Nset, nset=_PickedSet426, internal, instance=B-2-8, generate
   1,  192,    1
*Nset, nset=_PickedSet426, internal, instance=B-11-9, generate
   1,  192,    1
*Nset, nset=_PickedSet426, internal, instance=B-16-6, generate
   1,  192,    1
*Nset, nset=_PickedSet426, internal, instance=B-4-9, generate
   1,  192,    1
*Nset, nset=_PickedSet426, internal, instance=B-12-3, generate
   1,  192,    1
*Nset, nset=_PickedSet426, internal, instance=B-19-4, generate
   1,  192,    1
*Nset, nset=_PickedSet426, internal, instance=B-8-5, generate
   1,  192,    1
*Nset, nset=_PickedSet426, internal, instance=B-3-8, generate
   1,  192,    1
*Nset, nset=_PickedSet426, internal, instance=B-8-4, generate
   1,  192,    1
*Nset, nset=_PickedSet426, internal, instance=B-16-7, generate
   1,  192,    1
*Nset, nset=_PickedSet426, internal, instance=B-11-2, generate
   1,  192,    1
*Nset, nset=_PickedSet426, internal, instance=B-20-1, generate
   1,  192,    1
*Nset, nset=_PickedSet426, internal, instance=B-15-10, generate
   1,  120,    1
*Nset, nset=_PickedSet426, internal, instance=B-8-8, generate
   1,  192,    1
*Nset, nset=_PickedSet426, internal, instance=B-11-6, generate
   1,  192,    1
*Nset, nset=_PickedSet426, internal, instance=B-20-9, generate
   1,  192,    1
*Nset, nset=_PickedSet426, internal, instance=B-7-3, generate
   1,  192,    1
*Nset, nset=_PickedSet426, internal, instance=B-16-2, generate
   1,  192,    1
*Nset, nset=_PickedSet426, internal, instance=B-4-1, generate
   1,  192,    1
*Nset, nset=_PickedSet426, internal, instance=B-19-8, generate
   1,  192,    1
*Nset, nset=_PickedSet426, internal, instance=B-3-4, generate
   1,  192,    1
*Nset, nset=_PickedSet426, internal, instance=B-11-7, generate
   1,  192,    1
*Nset, nset=_PickedSet426, internal, instance=B-7-1, generate
   1,  120,    1
*Nset, nset=_PickedSet426, internal, instance=B-15-5, generate
   1,  192,    1
*Nset, nset=_PickedSet426, internal, instance=B-1-3, generate
   1,  192,    1
*Nset, nset=_PickedSet426, internal, instance=B-2-6, generate
   1,  192,    1
*Nset, nset=_PickedSet426, internal, instance=B-7-9, generate
   1,  192,    1
*Nset, nset=_PickedSet426, internal, instance=B-12-6, generate
   1,  192,    1
*Nset, nset=_PickedSet426, internal, instance=B-19-1, generate
   1,  120,    1
*Nset, nset=_PickedSet426, internal, instance=B-8-3, generate
   1,  192,    1
*Nset, nset=_PickedSet426, internal, instance=B-15-4, generate
   1,  192,    1
*Nset, nset=_PickedSet426, internal, instance=B-4-5, generate
   1,  192,    1
*Nset, nset=_PickedSet426, internal, instance=B-20-8, generate
   1,  192,    1
*Nset, nset=_PickedSet426, internal, instance=B-4-4, generate
   1,  192,    1
*Nset, nset=_PickedSet426, internal, instance=B-12-7, generate
   1,  192,    1
*Nset, nset=_PickedSet426, internal, instance=B-19-3, generate
   1,  192,    1
*Nset, nset=_PickedSet426, internal, instance=B-7-2, generate
   1,  192,    1
*Nset, nset=_PickedSet426, internal, instance=B-16-1, generate
   1,  192,    1
*Nset, nset=_PickedSet426, internal, instance=B-11-10, generate
   1,  120,    1
*Nset, nset=_PickedSet426, internal, instance=B-4-8, generate
   1,  192,    1
*Nset, nset=_PickedSet426, internal, instance=B-7-6, generate
   1,  192,    1
*Nset, nset=_PickedSet426, internal, instance=B-16-9, generate
   1,  192,    1
*Nset, nset=_PickedSet426, internal, instance=B-3-3, generate
   1,  192,    1
*Nset, nset=_PickedSet426, internal, instance=B-12-2, generate
   1,  192,    1
*Nset, nset=_PickedSet426, internal, instance=B-20-5, generate
   1,  192,    1
*Nset, nset=_PickedSet426, internal, instance=B-15-8, generate
   1,  192,    1
*Nset, nset=_PickedSet426, internal, instance=B-20-4, generate
   1,  192,    1
*Nset, nset=_PickedSet426, internal, instance=B-7-7, generate
   1,  192,    1
*Nset, nset=_PickedSet426, internal, instance=B-3-1, generate
   1,  120,    1
*Nset, nset=_PickedSet426, internal, instance=B-11-5, generate
   1,  192,    1
*Nset, nset=_PickedSet426, internal, instance=B-2-2, generate
   1,  192,    1
*Nset, nset=_PickedSet426, internal, instance=B-3-10, generate
   1,  120,    1
*Nset, nset=_PickedSet426, internal, instance=B-15-9, generate
   1,  192,    1
*Nset, nset=_PickedSet426, internal, instance=B-20-6, generate
   1,  192,    1
*Nset, nset=_PickedSet426, internal, instance=B-8-9, generate
   1,  192,    1
*Nset, nset=_PickedSet426, internal, instance=B-16-3, generate
   1,  192,    1
*Nset, nset=_PickedSet426, internal, instance=B-4-2, generate
   1,  192,    1
*Nset, nset=_PickedSet426, internal, instance=B-12-5, generate
   1,  192,    1
*Nset, nset=_PickedSet426, internal, instance=B-7-8, generate
   1,  192,    1
*Nset, nset=_PickedSet426, internal, instance=B-12-4, generate
   1,  192,    1
*Nset, nset=_PickedSet426, internal, instance=B-20-7, generate
   1,  192,    1
*Nset, nset=_PickedSet426, internal, instance=B-15-2, generate
   1,  192,    1
*Nset, nset=_PickedSet426, internal, instance=B-3-5, generate
   1,  192,    1
*Nset, nset=_PickedSet426, internal, instance=B-19-10, generate
   1,  120,    1
*Nset, nset=_PickedSet426, internal, instance=B-12-8, generate
   1,  192,    1
*Nset, nset=_PickedSet426, internal, instance=B-15-6, generate
   1,  192,    1
*Nset, nset=_PickedSet426, internal, instance=B-4-7, generate
   1,  192,    1
*Nset, nset=_PickedSet426, internal, instance=B-11-3, generate
   1,  192,    1
*Nset, nset=_PickedSet426, internal, instance=B-20-2, generate
   1,  192,    1
*Nset, nset=_PickedSet426, internal, instance=B-8-1, generate
   1,  192,    1
*Nset, nset=_PickedSet426, internal, instance=B-4-6, generate
   1,  192,    1
*Nset, nset=_PickedSet426, internal, instance=B-7-4, generate
   1,  192,    1
*Nset, nset=_PickedSet426, internal, instance=B-15-7, generate
   1,  192,    1
*Nset, nset=_PickedSet426, internal, instance=B-11-1, generate
   1,  120,    1
*Nset, nset=_PickedSet426, internal, instance=B-19-5, generate
   1,  192,    1
*Elset, elset=_PickedSet426, internal, instance=B-1-10, generate
  1,  56,   1
*Elset, elset=_PickedSet426, internal, instance=B-1-9, generate
  1,  98,   1
*Elset, elset=_PickedSet426, internal, instance=B-1-8, generate
  1,  98,   1
*Elset, elset=_PickedSet426, internal, instance=B-1-6, generate
  1,  98,   1
*Elset, elset=_PickedSet426, internal, instance=B-2-3, generate
  1,  98,   1
*Elset, elset=_PickedSet426, internal, instance=B-21-10, generate
  1,  56,   1
*Elset, elset=_PickedSet426, internal, instance=B-6-6, generate
  1,  98,   1
*Elset, elset=_PickedSet426, internal, instance=B-13-1, generate
  1,  56,   1
*Elset, elset=_PickedSet426, internal, instance=B-21-5, generate
  1,  98,   1
*Elset, elset=_PickedSet426, internal, instance=B-9-4, generate
  1,  98,   1
*Elset, elset=_PickedSet426, internal, instance=B-17-7, generate
  1,  98,   1
*Elset, elset=_PickedSet426, internal, instance=B-14-8, generate
  1,  98,   1
*Elset, elset=_PickedSet426, internal, instance=B-17-6, generate
  1,  98,   1
*Elset, elset=_PickedSet426, internal, instance=B-6-7, generate
  1,  98,   1
*Elset, elset=_PickedSet426, internal, instance=B-13-3, generate
  1,  98,   1
*Elset, elset=_PickedSet426, internal, instance=B-22-2, generate
  1,  98,   1
*Elset, elset=_PickedSet426, internal, instance=B-10-1, generate
  1,  98,   1
*Elset, elset=_PickedSet426, internal, instance=B-5-10, generate
  1,  56,   1
*Elset, elset=_PickedSet426, internal, instance=B-17-9, generate
  1,  98,   1
*Elset, elset=_PickedSet426, internal, instance=B-22-6, generate
  1,  98,   1
*Elset, elset=_PickedSet426, internal, instance=B-10-9, generate
  1,  98,   1
*Elset, elset=_PickedSet426, internal, instance=B-18-3, generate
  1,  98,   1
*Elset, elset=_PickedSet426, internal, instance=B-6-2, generate
  1,  98,   1
*Elset, elset=_PickedSet426, internal, instance=B-14-5, generate
  1,  98,   1
*Elset, elset=_PickedSet426, internal, instance=B-9-8, generate
  1,  98,   1
*Elset, elset=_PickedSet426, internal, instance=B-14-4, generate
  1,  98,   1
*Elset, elset=_PickedSet426, internal, instance=B-22-7, generate
  1,  98,   1
*Elset, elset=_PickedSet426, internal, instance=B-17-2, generate
  1,  98,   1
*Elset, elset=_PickedSet426, internal, instance=B-5-5, generate
  1,  98,   1
*Elset, elset=_PickedSet426, internal, instance=B-1-2, generate
  1,  98,   1
*Elset, elset=_PickedSet426, internal, instance=B-2-7, generate
  1,  98,   1
*Elset, elset=_PickedSet426, internal, instance=B-9-9, generate
  1,  98,   1
*Elset, elset=_PickedSet426, internal, instance=B-14-6, generate
  1,  98,   1
*Elset, elset=_PickedSet426, internal, instance=B-21-1, generate
  1,  56,   1
*Elset, elset=_PickedSet426, internal, instance=B-10-3, generate
  1,  98,   1
*Elset, elset=_PickedSet426, internal, instance=B-17-4, generate
  1,  98,   1
*Elset, elset=_PickedSet426, internal, instance=B-6-5, generate
  1,  98,   1
*Elset, elset=_PickedSet426, internal, instance=B-22-8, generate
  1,  98,   1
*Elset, elset=_PickedSet426, internal, instance=B-6-4, generate
  1,  98,   1
*Elset, elset=_PickedSet426, internal, instance=B-14-7, generate
  1,  98,   1
*Elset, elset=_PickedSet426, internal, instance=B-21-3, generate
  1,  98,   1
*Elset, elset=_PickedSet426, internal, instance=B-9-2, generate
  1,  98,   1
*Elset, elset=_PickedSet426, internal, instance=B-18-1, generate
  1,  98,   1
*Elset, elset=_PickedSet426, internal, instance=B-13-10, generate
  1,  56,   1
*Elset, elset=_PickedSet426, internal, instance=B-6-8, generate
  1,  98,   1
*Elset, elset=_PickedSet426, internal, instance=B-9-6, generate
  1,  98,   1
*Elset, elset=_PickedSet426, internal, instance=B-18-9, generate
  1,  98,   1
*Elset, elset=_PickedSet426, internal, instance=B-5-3, generate
  1,  98,   1
*Elset, elset=_PickedSet426, internal, instance=B-14-2, generate
  1,  98,   1
*Elset, elset=_PickedSet426, internal, instance=B-22-5, generate
  1,  98,   1
*Elset, elset=_PickedSet426, internal, instance=B-17-8, generate
  1,  98,   1
*Elset, elset=_PickedSet426, internal, instance=B-22-4, generate
  1,  98,   1
*Elset, elset=_PickedSet426, internal, instance=B-9-7, generate
  1,  98,   1
*Elset, elset=_PickedSet426, internal, instance=B-5-1, generate
  1,  56,   1
*Elset, elset=_PickedSet426, internal, instance=B-13-5, generate
  1,  98,   1
*Elset, elset=_PickedSet426, internal, instance=B-1-4, generate
  1,  98,   1
*Elset, elset=_PickedSet426, internal, instance=B-2-5, generate
  1,  98,   1
*Elset, elset=_PickedSet426, internal, instance=B-5-9, generate
  1,  98,   1
*Elset, elset=_PickedSet426, internal, instance=B-10-6, generate
  1,  98,   1
*Elset, elset=_PickedSet426, internal, instance=B-17-1, generate
  1,  56,   1
*Elset, elset=_PickedSet426, internal, instance=B-6-3, generate
  1,  98,   1
*Elset, elset=_PickedSet426, internal, instance=B-13-4, generate
  1,  98,   1
*Elset, elset=_PickedSet426, internal, instance=B-21-7, generate
  1,  98,   1
*Elset, elset=_PickedSet426, internal, instance=B-18-8, generate
  1,  98,   1
*Elset, elset=_PickedSet426, internal, instance=B-21-6, generate
  1,  98,   1
*Elset, elset=_PickedSet426, internal, instance=B-10-7, generate
  1,  98,   1
*Elset, elset=_PickedSet426, internal, instance=B-17-3, generate
  1,  98,   1
*Elset, elset=_PickedSet426, internal, instance=B-5-2, generate
  1,  98,   1
*Elset, elset=_PickedSet426, internal, instance=B-14-1, generate
  1,  98,   1
*Elset, elset=_PickedSet426, internal, instance=B-9-10, generate
  1,  56,   1
*Elset, elset=_PickedSet426, internal, instance=B-21-9, generate
  1,  98,   1
*Elset, elset=_PickedSet426, internal, instance=B-5-6, generate
  1,  98,   1
*Elset, elset=_PickedSet426, internal, instance=B-14-9, generate
  1,  98,   1
*Elset, elset=_PickedSet426, internal, instance=B-22-3, generate
  1,  98,   1
*Elset, elset=_PickedSet426, internal, instance=B-10-2, generate
  1,  98,   1
*Elset, elset=_PickedSet426, internal, instance=B-18-5, generate
  1,  98,   1
*Elset, elset=_PickedSet426, internal, instance=B-13-8, generate
  1,  98,   1
*Elset, elset=_PickedSet426, internal, instance=B-18-4, generate
  1,  98,   1
*Elset, elset=_PickedSet426, internal, instance=B-5-7, generate
  1,  98,   1
*Elset, elset=_PickedSet426, internal, instance=B-21-2, generate
  1,  98,   1
*Elset, elset=_PickedSet426, internal, instance=B-9-5, generate
  1,  98,   1
*Elset, elset=_PickedSet426, internal, instance=B-2-1, generate
  1,  98,   1
*Elset, elset=_PickedSet426, internal, instance=B-2-9, generate
  1,  98,   1
*Elset, elset=_PickedSet426, internal, instance=B-13-9, generate
  1,  98,   1
*Elset, elset=_PickedSet426, internal, instance=B-18-6, generate
  1,  98,   1
*Elset, elset=_PickedSet426, internal, instance=B-6-9, generate
  1,  98,   1
*Elset, elset=_PickedSet426, internal, instance=B-14-3, generate
  1,  98,   1
*Elset, elset=_PickedSet426, internal, instance=B-21-4, generate
  1,  98,   1
*Elset, elset=_PickedSet426, internal, instance=B-10-5, generate
  1,  98,   1
*Elset, elset=_PickedSet426, internal, instance=B-5-8, generate
  1,  98,   1
*Elset, elset=_PickedSet426, internal, instance=B-10-4, generate
  1,  98,   1
*Elset, elset=_PickedSet426, internal, instance=B-18-7, generate
  1,  98,   1
*Elset, elset=_PickedSet426, internal, instance=B-13-2, generate
  1,  98,   1
*Elset, elset=_PickedSet426, internal, instance=B-22-1, generate
  1,  98,   1
*Elset, elset=_PickedSet426, internal, instance=B-17-10, generate
  1,  56,   1
*Elset, elset=_PickedSet426, internal, instance=B-10-8, generate
  1,  98,   1
*Elset, elset=_PickedSet426, internal, instance=B-13-6, generate
  1,  98,   1
*Elset, elset=_PickedSet426, internal, instance=B-22-9, generate
  1,  98,   1
*Elset, elset=_PickedSet426, internal, instance=B-9-3, generate
  1,  98,   1
*Elset, elset=_PickedSet426, internal, instance=B-18-2, generate
  1,  98,   1
*Elset, elset=_PickedSet426, internal, instance=B-6-1, generate
  1,  98,   1
*Elset, elset=_PickedSet426, internal, instance=B-21-8, generate
  1,  98,   1
*Elset, elset=_PickedSet426, internal, instance=B-5-4, generate
  1,  98,   1
*Elset, elset=_PickedSet426, internal, instance=B-13-7, generate
  1,  98,   1
*Elset, elset=_PickedSet426, internal, instance=B-9-1, generate
  1,  56,   1
*Elset, elset=_PickedSet426, internal, instance=B-17-5, generate
  1,  98,   1
*Elset, elset=_PickedSet426, internal, instance=B-1-7, generate
  1,  98,   1
*Elset, elset=_PickedSet426, internal, instance=B-1-5, generate
  1,  98,   1
*Elset, elset=_PickedSet426, internal, instance=B-2-4, generate
  1,  98,   1
*Elset, elset=_PickedSet426, internal, instance=B-3-9, generate
  1,  98,   1
*Elset, elset=_PickedSet426, internal, instance=B-8-6, generate
  1,  98,   1
*Elset, elset=_PickedSet426, internal, instance=B-15-1, generate
  1,  56,   1
*Elset, elset=_PickedSet426, internal, instance=B-4-3, generate
  1,  98,   1
*Elset, elset=_PickedSet426, internal, instance=B-11-4, generate
  1,  98,   1
*Elset, elset=_PickedSet426, internal, instance=B-19-7, generate
  1,  98,   1
*Elset, elset=_PickedSet426, internal, instance=B-16-8, generate
  1,  98,   1
*Elset, elset=_PickedSet426, internal, instance=B-19-6, generate
  1,  98,   1
*Elset, elset=_PickedSet426, internal, instance=B-8-7, generate
  1,  98,   1
*Elset, elset=_PickedSet426, internal, instance=B-15-3, generate
  1,  98,   1
*Elset, elset=_PickedSet426, internal, instance=B-3-2, generate
  1,  98,   1
*Elset, elset=_PickedSet426, internal, instance=B-12-1, generate
  1,  98,   1
*Elset, elset=_PickedSet426, internal, instance=B-7-10, generate
  1,  56,   1
*Elset, elset=_PickedSet426, internal, instance=B-19-9, generate
  1,  98,   1
*Elset, elset=_PickedSet426, internal, instance=B-3-6, generate
  1,  98,   1
*Elset, elset=_PickedSet426, internal, instance=B-12-9, generate
  1,  98,   1
*Elset, elset=_PickedSet426, internal, instance=B-20-3, generate
  1,  98,   1
*Elset, elset=_PickedSet426, internal, instance=B-8-2, generate
  1,  98,   1
*Elset, elset=_PickedSet426, internal, instance=B-16-5, generate
  1,  98,   1
*Elset, elset=_PickedSet426, internal, instance=B-11-8, generate
  1,  98,   1
*Elset, elset=_PickedSet426, internal, instance=B-16-4, generate
  1,  98,   1
*Elset, elset=_PickedSet426, internal, instance=B-3-7, generate
  1,  98,   1
*Elset, elset=_PickedSet426, internal, instance=B-19-2, generate
  1,  98,   1
*Elset, elset=_PickedSet426, internal, instance=B-7-5, generate
  1,  98,   1
*Elset, elset=_PickedSet426, internal, instance=B-1-1, generate
  1,  56,   1
*Elset, elset=_PickedSet426, internal, instance=B-2-8, generate
  1,  98,   1
*Elset, elset=_PickedSet426, internal, instance=B-11-9, generate
  1,  98,   1
*Elset, elset=_PickedSet426, internal, instance=B-16-6, generate
  1,  98,   1
*Elset, elset=_PickedSet426, internal, instance=B-4-9, generate
  1,  98,   1
*Elset, elset=_PickedSet426, internal, instance=B-12-3, generate
  1,  98,   1
*Elset, elset=_PickedSet426, internal, instance=B-19-4, generate
  1,  98,   1
*Elset, elset=_PickedSet426, internal, instance=B-8-5, generate
  1,  98,   1
*Elset, elset=_PickedSet426, internal, instance=B-3-8, generate
  1,  98,   1
*Elset, elset=_PickedSet426, internal, instance=B-8-4, generate
  1,  98,   1
*Elset, elset=_PickedSet426, internal, instance=B-16-7, generate
  1,  98,   1
*Elset, elset=_PickedSet426, internal, instance=B-11-2, generate
  1,  98,   1
*Elset, elset=_PickedSet426, internal, instance=B-20-1, generate
  1,  98,   1
*Elset, elset=_PickedSet426, internal, instance=B-15-10, generate
  1,  56,   1
*Elset, elset=_PickedSet426, internal, instance=B-8-8, generate
  1,  98,   1
*Elset, elset=_PickedSet426, internal, instance=B-11-6, generate
  1,  98,   1
*Elset, elset=_PickedSet426, internal, instance=B-20-9, generate
  1,  98,   1
*Elset, elset=_PickedSet426, internal, instance=B-7-3, generate
  1,  98,   1
*Elset, elset=_PickedSet426, internal, instance=B-16-2, generate
  1,  98,   1
*Elset, elset=_PickedSet426, internal, instance=B-4-1, generate
  1,  98,   1
*Elset, elset=_PickedSet426, internal, instance=B-19-8, generate
  1,  98,   1
*Elset, elset=_PickedSet426, internal, instance=B-3-4, generate
  1,  98,   1
*Elset, elset=_PickedSet426, internal, instance=B-11-7, generate
  1,  98,   1
*Elset, elset=_PickedSet426, internal, instance=B-7-1, generate
  1,  56,   1
*Elset, elset=_PickedSet426, internal, instance=B-15-5, generate
  1,  98,   1
*Elset, elset=_PickedSet426, internal, instance=B-1-3, generate
  1,  98,   1
*Elset, elset=_PickedSet426, internal, instance=B-2-6, generate
  1,  98,   1
*Elset, elset=_PickedSet426, internal, instance=B-7-9, generate
  1,  98,   1
*Elset, elset=_PickedSet426, internal, instance=B-12-6, generate
  1,  98,   1
*Elset, elset=_PickedSet426, internal, instance=B-19-1, generate
  1,  56,   1
*Elset, elset=_PickedSet426, internal, instance=B-8-3, generate
  1,  98,   1
*Elset, elset=_PickedSet426, internal, instance=B-15-4, generate
  1,  98,   1
*Elset, elset=_PickedSet426, internal, instance=B-4-5, generate
  1,  98,   1
*Elset, elset=_PickedSet426, internal, instance=B-20-8, generate
  1,  98,   1
*Elset, elset=_PickedSet426, internal, instance=B-4-4, generate
  1,  98,   1
*Elset, elset=_PickedSet426, internal, instance=B-12-7, generate
  1,  98,   1
*Elset, elset=_PickedSet426, internal, instance=B-19-3, generate
  1,  98,   1
*Elset, elset=_PickedSet426, internal, instance=B-7-2, generate
  1,  98,   1
*Elset, elset=_PickedSet426, internal, instance=B-16-1, generate
  1,  98,   1
*Elset, elset=_PickedSet426, internal, instance=B-11-10, generate
  1,  56,   1
*Elset, elset=_PickedSet426, internal, instance=B-4-8, generate
  1,  98,   1
*Elset, elset=_PickedSet426, internal, instance=B-7-6, generate
  1,  98,   1
*Elset, elset=_PickedSet426, internal, instance=B-16-9, generate
  1,  98,   1
*Elset, elset=_PickedSet426, internal, instance=B-3-3, generate
  1,  98,   1
*Elset, elset=_PickedSet426, internal, instance=B-12-2, generate
  1,  98,   1
*Elset, elset=_PickedSet426, internal, instance=B-20-5, generate
  1,  98,   1
*Elset, elset=_PickedSet426, internal, instance=B-15-8, generate
  1,  98,   1
*Elset, elset=_PickedSet426, internal, instance=B-20-4, generate
  1,  98,   1
*Elset, elset=_PickedSet426, internal, instance=B-7-7, generate
  1,  98,   1
*Elset, elset=_PickedSet426, internal, instance=B-3-1, generate
  1,  56,   1
*Elset, elset=_PickedSet426, internal, instance=B-11-5, generate
  1,  98,   1
*Elset, elset=_PickedSet426, internal, instance=B-2-2, generate
  1,  98,   1
*Elset, elset=_PickedSet426, internal, instance=B-3-10, generate
  1,  56,   1
*Elset, elset=_PickedSet426, internal, instance=B-15-9, generate
  1,  98,   1
*Elset, elset=_PickedSet426, internal, instance=B-20-6, generate
  1,  98,   1
*Elset, elset=_PickedSet426, internal, instance=B-8-9, generate
  1,  98,   1
*Elset, elset=_PickedSet426, internal, instance=B-16-3, generate
  1,  98,   1
*Elset, elset=_PickedSet426, internal, instance=B-4-2, generate
  1,  98,   1
*Elset, elset=_PickedSet426, internal, instance=B-12-5, generate
  1,  98,   1
*Elset, elset=_PickedSet426, internal, instance=B-7-8, generate
  1,  98,   1
*Elset, elset=_PickedSet426, internal, instance=B-12-4, generate
  1,  98,   1
*Elset, elset=_PickedSet426, internal, instance=B-20-7, generate
  1,  98,   1
*Elset, elset=_PickedSet426, internal, instance=B-15-2, generate
  1,  98,   1
*Elset, elset=_PickedSet426, internal, instance=B-3-5, generate
  1,  98,   1
*Elset, elset=_PickedSet426, internal, instance=B-19-10, generate
  1,  56,   1
*Elset, elset=_PickedSet426, internal, instance=B-12-8, generate
  1,  98,   1
*Elset, elset=_PickedSet426, internal, instance=B-15-6, generate
  1,  98,   1
*Elset, elset=_PickedSet426, internal, instance=B-4-7, generate
  1,  98,   1
*Elset, elset=_PickedSet426, internal, instance=B-11-3, generate
  1,  98,   1
*Elset, elset=_PickedSet426, internal, instance=B-20-2, generate
  1,  98,   1
*Elset, elset=_PickedSet426, internal, instance=B-8-1, generate
  1,  98,   1
*Elset, elset=_PickedSet426, internal, instance=B-4-6, generate
  1,  98,   1
*Elset, elset=_PickedSet426, internal, instance=B-7-4, generate
  1,  98,   1
*Elset, elset=_PickedSet426, internal, instance=B-15-7, generate
  1,  98,   1
*Elset, elset=_PickedSet426, internal, instance=B-11-1, generate
  1,  56,   1
*Elset, elset=_PickedSet426, internal, instance=B-19-5, generate
  1,  98,   1
*Nset, nset=_PickedSet481, internal
 1,
*Nset, nset=_PickedSet482, internal
 2,
*Nset, nset=_PickedSet483, internal
 3,
*Nset, nset=_PickedSet484, internal, generate
 1,  3,  1
*Nset, nset=_PickedSet485, internal
 3,
*Elset, elset=_Bottoms_S5, internal, instance=B-1-10
  8,  9, 10, 11, 12, 13, 14, 22, 23, 24, 25, 26, 27, 28, 36, 37
 38, 39, 40, 41, 42, 50, 51, 52, 53, 54, 55, 56
*Elset, elset=_Bottoms_S5, internal, instance=B-1-9
  8,  9, 10, 11, 12, 13, 14, 22, 23, 24, 25, 26, 27, 28, 36, 37
 38, 39, 40, 41, 42, 50, 51, 52, 53, 54, 55, 56, 64, 65, 66, 67
 68, 69, 70, 78, 79, 80, 81, 82, 83, 84, 92, 93, 94, 95, 96, 97
 98,
*Elset, elset=_Bottoms_S5, internal, instance=B-1-8
  8,  9, 10, 11, 12, 13, 14, 22, 23, 24, 25, 26, 27, 28, 36, 37
 38, 39, 40, 41, 42, 50, 51, 52, 53, 54, 55, 56, 64, 65, 66, 67
 68, 69, 70, 78, 79, 80, 81, 82, 83, 84, 92, 93, 94, 95, 96, 97
 98,
*Elset, elset=_Bottoms_S5, internal, instance=B-1-6
  8,  9, 10, 11, 12, 13, 14, 22, 23, 24, 25, 26, 27, 28, 36, 37
 38, 39, 40, 41, 42, 50, 51, 52, 53, 54, 55, 56, 64, 65, 66, 67
 68, 69, 70, 78, 79, 80, 81, 82, 83, 84, 92, 93, 94, 95, 96, 97
 98,
*Elset, elset=_Bottoms_S5, internal, instance=B-2-3
  8,  9, 10, 11, 12, 13, 14, 22, 23, 24, 25, 26, 27, 28, 36, 37
 38, 39, 40, 41, 42, 50, 51, 52, 53, 54, 55, 56, 64, 65, 66, 67
 68, 69, 70, 78, 79, 80, 81, 82, 83, 84, 92, 93, 94, 95, 96, 97
 98,
*Elset, elset=_Bottoms_S5, internal, instance=B-21-10
  8,  9, 10, 11, 12, 13, 14, 22, 23, 24, 25, 26, 27, 28, 36, 37
 38, 39, 40, 41, 42, 50, 51, 52, 53, 54, 55, 56
*Elset, elset=_Bottoms_S5, internal, instance=B-6-6
  8,  9, 10, 11, 12, 13, 14, 22, 23, 24, 25, 26, 27, 28, 36, 37
 38, 39, 40, 41, 42, 50, 51, 52, 53, 54, 55, 56, 64, 65, 66, 67
 68, 69, 70, 78, 79, 80, 81, 82, 83, 84, 92, 93, 94, 95, 96, 97
 98,
*Elset, elset=_Bottoms_S5, internal, instance=B-13-1
  8,  9, 10, 11, 12, 13, 14, 22, 23, 24, 25, 26, 27, 28, 36, 37
 38, 39, 40, 41, 42, 50, 51, 52, 53, 54, 55, 56
*Elset, elset=_Bottoms_S5, internal, instance=B-21-5
  8,  9, 10, 11, 12, 13, 14, 22, 23, 24, 25, 26, 27, 28, 36, 37
 38, 39, 40, 41, 42, 50, 51, 52, 53, 54, 55, 56, 64, 65, 66, 67
 68, 69, 70, 78, 79, 80, 81, 82, 83, 84, 92, 93, 94, 95, 96, 97
 98,
*Elset, elset=_Bottoms_S5, internal, instance=B-9-4
  8,  9, 10, 11, 12, 13, 14, 22, 23, 24, 25, 26, 27, 28, 36, 37
 38, 39, 40, 41, 42, 50, 51, 52, 53, 54, 55, 56, 64, 65, 66, 67
 68, 69, 70, 78, 79, 80, 81, 82, 83, 84, 92, 93, 94, 95, 96, 97
 98,
*Elset, elset=_Bottoms_S5, internal, instance=B-17-7
  8,  9, 10, 11, 12, 13, 14, 22, 23, 24, 25, 26, 27, 28, 36, 37
 38, 39, 40, 41, 42, 50, 51, 52, 53, 54, 55, 56, 64, 65, 66, 67
 68, 69, 70, 78, 79, 80, 81, 82, 83, 84, 92, 93, 94, 95, 96, 97
 98,
*Elset, elset=_Bottoms_S5, internal, instance=B-14-8
  8,  9, 10, 11, 12, 13, 14, 22, 23, 24, 25, 26, 27, 28, 36, 37
 38, 39, 40, 41, 42, 50, 51, 52, 53, 54, 55, 56, 64, 65, 66, 67
 68, 69, 70, 78, 79, 80, 81, 82, 83, 84, 92, 93, 94, 95, 96, 97
 98,
*Elset, elset=_Bottoms_S5, internal, instance=B-17-6
  8,  9, 10, 11, 12, 13, 14, 22, 23, 24, 25, 26, 27, 28, 36, 37
 38, 39, 40, 41, 42, 50, 51, 52, 53, 54, 55, 56, 64, 65, 66, 67
 68, 69, 70, 78, 79, 80, 81, 82, 83, 84, 92, 93, 94, 95, 96, 97
 98,
*Elset, elset=_Bottoms_S5, internal, instance=B-6-7
  8,  9, 10, 11, 12, 13, 14, 22, 23, 24, 25, 26, 27, 28, 36, 37
 38, 39, 40, 41, 42, 50, 51, 52, 53, 54, 55, 56, 64, 65, 66, 67
 68, 69, 70, 78, 79, 80, 81, 82, 83, 84, 92, 93, 94, 95, 96, 97
 98,
*Elset, elset=_Bottoms_S5, internal, instance=B-13-3
  8,  9, 10, 11, 12, 13, 14, 22, 23, 24, 25, 26, 27, 28, 36, 37
 38, 39, 40, 41, 42, 50, 51, 52, 53, 54, 55, 56, 64, 65, 66, 67
 68, 69, 70, 78, 79, 80, 81, 82, 83, 84, 92, 93, 94, 95, 96, 97
 98,
*Elset, elset=_Bottoms_S5, internal, instance=B-22-2
  8,  9, 10, 11, 12, 13, 14, 22, 23, 24, 25, 26, 27, 28, 36, 37
 38, 39, 40, 41, 42, 50, 51, 52, 53, 54, 55, 56, 64, 65, 66, 67
 68, 69, 70, 78, 79, 80, 81, 82, 83, 84, 92, 93, 94, 95, 96, 97
 98,
*Elset, elset=_Bottoms_S5, internal, instance=B-10-1
  8,  9, 10, 11, 12, 13, 14, 22, 23, 24, 25, 26, 27, 28, 36, 37
 38, 39, 40, 41, 42, 50, 51, 52, 53, 54, 55, 56, 64, 65, 66, 67
 68, 69, 70, 78, 79, 80, 81, 82, 83, 84, 92, 93, 94, 95, 96, 97
 98,
*Elset, elset=_Bottoms_S5, internal, instance=B-5-10
  8,  9, 10, 11, 12, 13, 14, 22, 23, 24, 25, 26, 27, 28, 36, 37
 38, 39, 40, 41, 42, 50, 51, 52, 53, 54, 55, 56
*Elset, elset=_Bottoms_S5, internal, instance=B-17-9
  8,  9, 10, 11, 12, 13, 14, 22, 23, 24, 25, 26, 27, 28, 36, 37
 38, 39, 40, 41, 42, 50, 51, 52, 53, 54, 55, 56, 64, 65, 66, 67
 68, 69, 70, 78, 79, 80, 81, 82, 83, 84, 92, 93, 94, 95, 96, 97
 98,
*Elset, elset=_Bottoms_S5, internal, instance=B-22-6
  8,  9, 10, 11, 12, 13, 14, 22, 23, 24, 25, 26, 27, 28, 36, 37
 38, 39, 40, 41, 42, 50, 51, 52, 53, 54, 55, 56, 64, 65, 66, 67
 68, 69, 70, 78, 79, 80, 81, 82, 83, 84, 92, 93, 94, 95, 96, 97
 98,
*Elset, elset=_Bottoms_S5, internal, instance=B-10-9
  8,  9, 10, 11, 12, 13, 14, 22, 23, 24, 25, 26, 27, 28, 36, 37
 38, 39, 40, 41, 42, 50, 51, 52, 53, 54, 55, 56, 64, 65, 66, 67
 68, 69, 70, 78, 79, 80, 81, 82, 83, 84, 92, 93, 94, 95, 96, 97
 98,
*Elset, elset=_Bottoms_S5, internal, instance=B-18-3
  8,  9, 10, 11, 12, 13, 14, 22, 23, 24, 25, 26, 27, 28, 36, 37
 38, 39, 40, 41, 42, 50, 51, 52, 53, 54, 55, 56, 64, 65, 66, 67
 68, 69, 70, 78, 79, 80, 81, 82, 83, 84, 92, 93, 94, 95, 96, 97
 98,
*Elset, elset=_Bottoms_S5, internal, instance=B-6-2
  8,  9, 10, 11, 12, 13, 14, 22, 23, 24, 25, 26, 27, 28, 36, 37
 38, 39, 40, 41, 42, 50, 51, 52, 53, 54, 55, 56, 64, 65, 66, 67
 68, 69, 70, 78, 79, 80, 81, 82, 83, 84, 92, 93, 94, 95, 96, 97
 98,
*Elset, elset=_Bottoms_S5, internal, instance=B-14-5
  8,  9, 10, 11, 12, 13, 14, 22, 23, 24, 25, 26, 27, 28, 36, 37
 38, 39, 40, 41, 42, 50, 51, 52, 53, 54, 55, 56, 64, 65, 66, 67
 68, 69, 70, 78, 79, 80, 81, 82, 83, 84, 92, 93, 94, 95, 96, 97
 98,
*Elset, elset=_Bottoms_S5, internal, instance=B-9-8
  8,  9, 10, 11, 12, 13, 14, 22, 23, 24, 25, 26, 27, 28, 36, 37
 38, 39, 40, 41, 42, 50, 51, 52, 53, 54, 55, 56, 64, 65, 66, 67
 68, 69, 70, 78, 79, 80, 81, 82, 83, 84, 92, 93, 94, 95, 96, 97
 98,
*Elset, elset=_Bottoms_S5, internal, instance=B-14-4
  8,  9, 10, 11, 12, 13, 14, 22, 23, 24, 25, 26, 27, 28, 36, 37
 38, 39, 40, 41, 42, 50, 51, 52, 53, 54, 55, 56, 64, 65, 66, 67
 68, 69, 70, 78, 79, 80, 81, 82, 83, 84, 92, 93, 94, 95, 96, 97
 98,
*Elset, elset=_Bottoms_S5, internal, instance=B-22-7
  8,  9, 10, 11, 12, 13, 14, 22, 23, 24, 25, 26, 27, 28, 36, 37
 38, 39, 40, 41, 42, 50, 51, 52, 53, 54, 55, 56, 64, 65, 66, 67
 68, 69, 70, 78, 79, 80, 81, 82, 83, 84, 92, 93, 94, 95, 96, 97
 98,
*Elset, elset=_Bottoms_S5, internal, instance=B-17-2
  8,  9, 10, 11, 12, 13, 14, 22, 23, 24, 25, 26, 27, 28, 36, 37
 38, 39, 40, 41, 42, 50, 51, 52, 53, 54, 55, 56, 64, 65, 66, 67
 68, 69, 70, 78, 79, 80, 81, 82, 83, 84, 92, 93, 94, 95, 96, 97
 98,
*Elset, elset=_Bottoms_S5, internal, instance=B-5-5
  8,  9, 10, 11, 12, 13, 14, 22, 23, 24, 25, 26, 27, 28, 36, 37
 38, 39, 40, 41, 42, 50, 51, 52, 53, 54, 55, 56, 64, 65, 66, 67
 68, 69, 70, 78, 79, 80, 81, 82, 83, 84, 92, 93, 94, 95, 96, 97
 98,
*Elset, elset=_Bottoms_S5, internal, instance=B-1-2
  8,  9, 10, 11, 12, 13, 14, 22, 23, 24, 25, 26, 27, 28, 36, 37
 38, 39, 40, 41, 42, 50, 51, 52, 53, 54, 55, 56, 64, 65, 66, 67
 68, 69, 70, 78, 79, 80, 81, 82, 83, 84, 92, 93, 94, 95, 96, 97
 98,
*Elset, elset=_Bottoms_S5, internal, instance=B-2-7
  8,  9, 10, 11, 12, 13, 14, 22, 23, 24, 25, 26, 27, 28, 36, 37
 38, 39, 40, 41, 42, 50, 51, 52, 53, 54, 55, 56, 64, 65, 66, 67
 68, 69, 70, 78, 79, 80, 81, 82, 83, 84, 92, 93, 94, 95, 96, 97
 98,
*Elset, elset=_Bottoms_S5, internal, instance=B-9-9
  8,  9, 10, 11, 12, 13, 14, 22, 23, 24, 25, 26, 27, 28, 36, 37
 38, 39, 40, 41, 42, 50, 51, 52, 53, 54, 55, 56, 64, 65, 66, 67
 68, 69, 70, 78, 79, 80, 81, 82, 83, 84, 92, 93, 94, 95, 96, 97
 98,
*Elset, elset=_Bottoms_S5, internal, instance=B-14-6
  8,  9, 10, 11, 12, 13, 14, 22, 23, 24, 25, 26, 27, 28, 36, 37
 38, 39, 40, 41, 42, 50, 51, 52, 53, 54, 55, 56, 64, 65, 66, 67
 68, 69, 70, 78, 79, 80, 81, 82, 83, 84, 92, 93, 94, 95, 96, 97
 98,
*Elset, elset=_Bottoms_S5, internal, instance=B-21-1
  8,  9, 10, 11, 12, 13, 14, 22, 23, 24, 25, 26, 27, 28, 36, 37
 38, 39, 40, 41, 42, 50, 51, 52, 53, 54, 55, 56
*Elset, elset=_Bottoms_S5, internal, instance=B-10-3
  8,  9, 10, 11, 12, 13, 14, 22, 23, 24, 25, 26, 27, 28, 36, 37
 38, 39, 40, 41, 42, 50, 51, 52, 53, 54, 55, 56, 64, 65, 66, 67
 68, 69, 70, 78, 79, 80, 81, 82, 83, 84, 92, 93, 94, 95, 96, 97
 98,
*Elset, elset=_Bottoms_S5, internal, instance=B-17-4
  8,  9, 10, 11, 12, 13, 14, 22, 23, 24, 25, 26, 27, 28, 36, 37
 38, 39, 40, 41, 42, 50, 51, 52, 53, 54, 55, 56, 64, 65, 66, 67
 68, 69, 70, 78, 79, 80, 81, 82, 83, 84, 92, 93, 94, 95, 96, 97
 98,
*Elset, elset=_Bottoms_S5, internal, instance=B-6-5
  8,  9, 10, 11, 12, 13, 14, 22, 23, 24, 25, 26, 27, 28, 36, 37
 38, 39, 40, 41, 42, 50, 51, 52, 53, 54, 55, 56, 64, 65, 66, 67
 68, 69, 70, 78, 79, 80, 81, 82, 83, 84, 92, 93, 94, 95, 96, 97
 98,
*Elset, elset=_Bottoms_S5, internal, instance=B-22-8
  8,  9, 10, 11, 12, 13, 14, 22, 23, 24, 25, 26, 27, 28, 36, 37
 38, 39, 40, 41, 42, 50, 51, 52, 53, 54, 55, 56, 64, 65, 66, 67
 68, 69, 70, 78, 79, 80, 81, 82, 83, 84, 92, 93, 94, 95, 96, 97
 98,
*Elset, elset=_Bottoms_S5, internal, instance=B-6-4
  8,  9, 10, 11, 12, 13, 14, 22, 23, 24, 25, 26, 27, 28, 36, 37
 38, 39, 40, 41, 42, 50, 51, 52, 53, 54, 55, 56, 64, 65, 66, 67
 68, 69, 70, 78, 79, 80, 81, 82, 83, 84, 92, 93, 94, 95, 96, 97
 98,
*Elset, elset=_Bottoms_S5, internal, instance=B-14-7
  8,  9, 10, 11, 12, 13, 14, 22, 23, 24, 25, 26, 27, 28, 36, 37
 38, 39, 40, 41, 42, 50, 51, 52, 53, 54, 55, 56, 64, 65, 66, 67
 68, 69, 70, 78, 79, 80, 81, 82, 83, 84, 92, 93, 94, 95, 96, 97
 98,
*Elset, elset=_Bottoms_S5, internal, instance=B-21-3
  8,  9, 10, 11, 12, 13, 14, 22, 23, 24, 25, 26, 27, 28, 36, 37
 38, 39, 40, 41, 42, 50, 51, 52, 53, 54, 55, 56, 64, 65, 66, 67
 68, 69, 70, 78, 79, 80, 81, 82, 83, 84, 92, 93, 94, 95, 96, 97
 98,
*Elset, elset=_Bottoms_S5, internal, instance=B-9-2
  8,  9, 10, 11, 12, 13, 14, 22, 23, 24, 25, 26, 27, 28, 36, 37
 38, 39, 40, 41, 42, 50, 51, 52, 53, 54, 55, 56, 64, 65, 66, 67
 68, 69, 70, 78, 79, 80, 81, 82, 83, 84, 92, 93, 94, 95, 96, 97
 98,
*Elset, elset=_Bottoms_S5, internal, instance=B-18-1
  8,  9, 10, 11, 12, 13, 14, 22, 23, 24, 25, 26, 27, 28, 36, 37
 38, 39, 40, 41, 42, 50, 51, 52, 53, 54, 55, 56, 64, 65, 66, 67
 68, 69, 70, 78, 79, 80, 81, 82, 83, 84, 92, 93, 94, 95, 96, 97
 98,
*Elset, elset=_Bottoms_S5, internal, instance=B-13-10
  8,  9, 10, 11, 12, 13, 14, 22, 23, 24, 25, 26, 27, 28, 36, 37
 38, 39, 40, 41, 42, 50, 51, 52, 53, 54, 55, 56
*Elset, elset=_Bottoms_S5, internal, instance=B-6-8
  8,  9, 10, 11, 12, 13, 14, 22, 23, 24, 25, 26, 27, 28, 36, 37
 38, 39, 40, 41, 42, 50, 51, 52, 53, 54, 55, 56, 64, 65, 66, 67
 68, 69, 70, 78, 79, 80, 81, 82, 83, 84, 92, 93, 94, 95, 96, 97
 98,
*Elset, elset=_Bottoms_S5, internal, instance=B-9-6
  8,  9, 10, 11, 12, 13, 14, 22, 23, 24, 25, 26, 27, 28, 36, 37
 38, 39, 40, 41, 42, 50, 51, 52, 53, 54, 55, 56, 64, 65, 66, 67
 68, 69, 70, 78, 79, 80, 81, 82, 83, 84, 92, 93, 94, 95, 96, 97
 98,
*Elset, elset=_Bottoms_S5, internal, instance=B-18-9
  8,  9, 10, 11, 12, 13, 14, 22, 23, 24, 25, 26, 27, 28, 36, 37
 38, 39, 40, 41, 42, 50, 51, 52, 53, 54, 55, 56, 64, 65, 66, 67
 68, 69, 70, 78, 79, 80, 81, 82, 83, 84, 92, 93, 94, 95, 96, 97
 98,
*Elset, elset=_Bottoms_S5, internal, instance=B-5-3
  8,  9, 10, 11, 12, 13, 14, 22, 23, 24, 25, 26, 27, 28, 36, 37
 38, 39, 40, 41, 42, 50, 51, 52, 53, 54, 55, 56, 64, 65, 66, 67
 68, 69, 70, 78, 79, 80, 81, 82, 83, 84, 92, 93, 94, 95, 96, 97
 98,
*Elset, elset=_Bottoms_S5, internal, instance=B-14-2
  8,  9, 10, 11, 12, 13, 14, 22, 23, 24, 25, 26, 27, 28, 36, 37
 38, 39, 40, 41, 42, 50, 51, 52, 53, 54, 55, 56, 64, 65, 66, 67
 68, 69, 70, 78, 79, 80, 81, 82, 83, 84, 92, 93, 94, 95, 96, 97
 98,
*Elset, elset=_Bottoms_S5, internal, instance=B-22-5
  8,  9, 10, 11, 12, 13, 14, 22, 23, 24, 25, 26, 27, 28, 36, 37
 38, 39, 40, 41, 42, 50, 51, 52, 53, 54, 55, 56, 64, 65, 66, 67
 68, 69, 70, 78, 79, 80, 81, 82, 83, 84, 92, 93, 94, 95, 96, 97
 98,
*Elset, elset=_Bottoms_S5, internal, instance=B-17-8
  8,  9, 10, 11, 12, 13, 14, 22, 23, 24, 25, 26, 27, 28, 36, 37
 38, 39, 40, 41, 42, 50, 51, 52, 53, 54, 55, 56, 64, 65, 66, 67
 68, 69, 70, 78, 79, 80, 81, 82, 83, 84, 92, 93, 94, 95, 96, 97
 98,
*Elset, elset=_Bottoms_S5, internal, instance=B-22-4
  8,  9, 10, 11, 12, 13, 14, 22, 23, 24, 25, 26, 27, 28, 36, 37
 38, 39, 40, 41, 42, 50, 51, 52, 53, 54, 55, 56, 64, 65, 66, 67
 68, 69, 70, 78, 79, 80, 81, 82, 83, 84, 92, 93, 94, 95, 96, 97
 98,
*Elset, elset=_Bottoms_S5, internal, instance=B-9-7
  8,  9, 10, 11, 12, 13, 14, 22, 23, 24, 25, 26, 27, 28, 36, 37
 38, 39, 40, 41, 42, 50, 51, 52, 53, 54, 55, 56, 64, 65, 66, 67
 68, 69, 70, 78, 79, 80, 81, 82, 83, 84, 92, 93, 94, 95, 96, 97
 98,
*Elset, elset=_Bottoms_S5, internal, instance=B-5-1
  8,  9, 10, 11, 12, 13, 14, 22, 23, 24, 25, 26, 27, 28, 36, 37
 38, 39, 40, 41, 42, 50, 51, 52, 53, 54, 55, 56
*Elset, elset=_Bottoms_S5, internal, instance=B-13-5
  8,  9, 10, 11, 12, 13, 14, 22, 23, 24, 25, 26, 27, 28, 36, 37
 38, 39, 40, 41, 42, 50, 51, 52, 53, 54, 55, 56, 64, 65, 66, 67
 68, 69, 70, 78, 79, 80, 81, 82, 83, 84, 92, 93, 94, 95, 96, 97
 98,
*Elset, elset=_Bottoms_S5, internal, instance=B-1-4
  8,  9, 10, 11, 12, 13, 14, 22, 23, 24, 25, 26, 27, 28, 36, 37
 38, 39, 40, 41, 42, 50, 51, 52, 53, 54, 55, 56, 64, 65, 66, 67
 68, 69, 70, 78, 79, 80, 81, 82, 83, 84, 92, 93, 94, 95, 96, 97
 98,
*Elset, elset=_Bottoms_S5, internal, instance=B-2-5
  8,  9, 10, 11, 12, 13, 14, 22, 23, 24, 25, 26, 27, 28, 36, 37
 38, 39, 40, 41, 42, 50, 51, 52, 53, 54, 55, 56, 64, 65, 66, 67
 68, 69, 70, 78, 79, 80, 81, 82, 83, 84, 92, 93, 94, 95, 96, 97
 98,
*Elset, elset=_Bottoms_S5, internal, instance=B-5-9
  8,  9, 10, 11, 12, 13, 14, 22, 23, 24, 25, 26, 27, 28, 36, 37
 38, 39, 40, 41, 42, 50, 51, 52, 53, 54, 55, 56, 64, 65, 66, 67
 68, 69, 70, 78, 79, 80, 81, 82, 83, 84, 92, 93, 94, 95, 96, 97
 98,
*Elset, elset=_Bottoms_S5, internal, instance=B-10-6
  8,  9, 10, 11, 12, 13, 14, 22, 23, 24, 25, 26, 27, 28, 36, 37
 38, 39, 40, 41, 42, 50, 51, 52, 53, 54, 55, 56, 64, 65, 66, 67
 68, 69, 70, 78, 79, 80, 81, 82, 83, 84, 92, 93, 94, 95, 96, 97
 98,
*Elset, elset=_Bottoms_S5, internal, instance=B-17-1
  8,  9, 10, 11, 12, 13, 14, 22, 23, 24, 25, 26, 27, 28, 36, 37
 38, 39, 40, 41, 42, 50, 51, 52, 53, 54, 55, 56
*Elset, elset=_Bottoms_S5, internal, instance=B-6-3
  8,  9, 10, 11, 12, 13, 14, 22, 23, 24, 25, 26, 27, 28, 36, 37
 38, 39, 40, 41, 42, 50, 51, 52, 53, 54, 55, 56, 64, 65, 66, 67
 68, 69, 70, 78, 79, 80, 81, 82, 83, 84, 92, 93, 94, 95, 96, 97
 98,
*Elset, elset=_Bottoms_S5, internal, instance=B-13-4
  8,  9, 10, 11, 12, 13, 14, 22, 23, 24, 25, 26, 27, 28, 36, 37
 38, 39, 40, 41, 42, 50, 51, 52, 53, 54, 55, 56, 64, 65, 66, 67
 68, 69, 70, 78, 79, 80, 81, 82, 83, 84, 92, 93, 94, 95, 96, 97
 98,
*Elset, elset=_Bottoms_S5, internal, instance=B-21-7
  8,  9, 10, 11, 12, 13, 14, 22, 23, 24, 25, 26, 27, 28, 36, 37
 38, 39, 40, 41, 42, 50, 51, 52, 53, 54, 55, 56, 64, 65, 66, 67
 68, 69, 70, 78, 79, 80, 81, 82, 83, 84, 92, 93, 94, 95, 96, 97
 98,
*Elset, elset=_Bottoms_S5, internal, instance=B-18-8
  8,  9, 10, 11, 12, 13, 14, 22, 23, 24, 25, 26, 27, 28, 36, 37
 38, 39, 40, 41, 42, 50, 51, 52, 53, 54, 55, 56, 64, 65, 66, 67
 68, 69, 70, 78, 79, 80, 81, 82, 83, 84, 92, 93, 94, 95, 96, 97
 98,
*Elset, elset=_Bottoms_S5, internal, instance=B-21-6
  8,  9, 10, 11, 12, 13, 14, 22, 23, 24, 25, 26, 27, 28, 36, 37
 38, 39, 40, 41, 42, 50, 51, 52, 53, 54, 55, 56, 64, 65, 66, 67
 68, 69, 70, 78, 79, 80, 81, 82, 83, 84, 92, 93, 94, 95, 96, 97
 98,
*Elset, elset=_Bottoms_S5, internal, instance=B-10-7
  8,  9, 10, 11, 12, 13, 14, 22, 23, 24, 25, 26, 27, 28, 36, 37
 38, 39, 40, 41, 42, 50, 51, 52, 53, 54, 55, 56, 64, 65, 66, 67
 68, 69, 70, 78, 79, 80, 81, 82, 83, 84, 92, 93, 94, 95, 96, 97
 98,
*Elset, elset=_Bottoms_S5, internal, instance=B-17-3
  8,  9, 10, 11, 12, 13, 14, 22, 23, 24, 25, 26, 27, 28, 36, 37
 38, 39, 40, 41, 42, 50, 51, 52, 53, 54, 55, 56, 64, 65, 66, 67
 68, 69, 70, 78, 79, 80, 81, 82, 83, 84, 92, 93, 94, 95, 96, 97
 98,
*Elset, elset=_Bottoms_S5, internal, instance=B-5-2
  8,  9, 10, 11, 12, 13, 14, 22, 23, 24, 25, 26, 27, 28, 36, 37
 38, 39, 40, 41, 42, 50, 51, 52, 53, 54, 55, 56, 64, 65, 66, 67
 68, 69, 70, 78, 79, 80, 81, 82, 83, 84, 92, 93, 94, 95, 96, 97
 98,
*Elset, elset=_Bottoms_S5, internal, instance=B-14-1
  8,  9, 10, 11, 12, 13, 14, 22, 23, 24, 25, 26, 27, 28, 36, 37
 38, 39, 40, 41, 42, 50, 51, 52, 53, 54, 55, 56, 64, 65, 66, 67
 68, 69, 70, 78, 79, 80, 81, 82, 83, 84, 92, 93, 94, 95, 96, 97
 98,
*Elset, elset=_Bottoms_S5, internal, instance=B-9-10
  8,  9, 10, 11, 12, 13, 14, 22, 23, 24, 25, 26, 27, 28, 36, 37
 38, 39, 40, 41, 42, 50, 51, 52, 53, 54, 55, 56
*Elset, elset=_Bottoms_S5, internal, instance=B-21-9
  8,  9, 10, 11, 12, 13, 14, 22, 23, 24, 25, 26, 27, 28, 36, 37
 38, 39, 40, 41, 42, 50, 51, 52, 53, 54, 55, 56, 64, 65, 66, 67
 68, 69, 70, 78, 79, 80, 81, 82, 83, 84, 92, 93, 94, 95, 96, 97
 98,
*Elset, elset=_Bottoms_S5, internal, instance=B-5-6
  8,  9, 10, 11, 12, 13, 14, 22, 23, 24, 25, 26, 27, 28, 36, 37
 38, 39, 40, 41, 42, 50, 51, 52, 53, 54, 55, 56, 64, 65, 66, 67
 68, 69, 70, 78, 79, 80, 81, 82, 83, 84, 92, 93, 94, 95, 96, 97
 98,
*Elset, elset=_Bottoms_S5, internal, instance=B-14-9
  8,  9, 10, 11, 12, 13, 14, 22, 23, 24, 25, 26, 27, 28, 36, 37
 38, 39, 40, 41, 42, 50, 51, 52, 53, 54, 55, 56, 64, 65, 66, 67
 68, 69, 70, 78, 79, 80, 81, 82, 83, 84, 92, 93, 94, 95, 96, 97
 98,
*Elset, elset=_Bottoms_S5, internal, instance=B-22-3
  8,  9, 10, 11, 12, 13, 14, 22, 23, 24, 25, 26, 27, 28, 36, 37
 38, 39, 40, 41, 42, 50, 51, 52, 53, 54, 55, 56, 64, 65, 66, 67
 68, 69, 70, 78, 79, 80, 81, 82, 83, 84, 92, 93, 94, 95, 96, 97
 98,
*Elset, elset=_Bottoms_S5, internal, instance=B-10-2
  8,  9, 10, 11, 12, 13, 14, 22, 23, 24, 25, 26, 27, 28, 36, 37
 38, 39, 40, 41, 42, 50, 51, 52, 53, 54, 55, 56, 64, 65, 66, 67
 68, 69, 70, 78, 79, 80, 81, 82, 83, 84, 92, 93, 94, 95, 96, 97
 98,
*Elset, elset=_Bottoms_S5, internal, instance=B-18-5
  8,  9, 10, 11, 12, 13, 14, 22, 23, 24, 25, 26, 27, 28, 36, 37
 38, 39, 40, 41, 42, 50, 51, 52, 53, 54, 55, 56, 64, 65, 66, 67
 68, 69, 70, 78, 79, 80, 81, 82, 83, 84, 92, 93, 94, 95, 96, 97
 98,
*Elset, elset=_Bottoms_S5, internal, instance=B-13-8
  8,  9, 10, 11, 12, 13, 14, 22, 23, 24, 25, 26, 27, 28, 36, 37
 38, 39, 40, 41, 42, 50, 51, 52, 53, 54, 55, 56, 64, 65, 66, 67
 68, 69, 70, 78, 79, 80, 81, 82, 83, 84, 92, 93, 94, 95, 96, 97
 98,
*Elset, elset=_Bottoms_S5, internal, instance=B-18-4
  8,  9, 10, 11, 12, 13, 14, 22, 23, 24, 25, 26, 27, 28, 36, 37
 38, 39, 40, 41, 42, 50, 51, 52, 53, 54, 55, 56, 64, 65, 66, 67
 68, 69, 70, 78, 79, 80, 81, 82, 83, 84, 92, 93, 94, 95, 96, 97
 98,
*Elset, elset=_Bottoms_S5, internal, instance=B-5-7
  8,  9, 10, 11, 12, 13, 14, 22, 23, 24, 25, 26, 27, 28, 36, 37
 38, 39, 40, 41, 42, 50, 51, 52, 53, 54, 55, 56, 64, 65, 66, 67
 68, 69, 70, 78, 79, 80, 81, 82, 83, 84, 92, 93, 94, 95, 96, 97
 98,
*Elset, elset=_Bottoms_S5, internal, instance=B-21-2
  8,  9, 10, 11, 12, 13, 14, 22, 23, 24, 25, 26, 27, 28, 36, 37
 38, 39, 40, 41, 42, 50, 51, 52, 53, 54, 55, 56, 64, 65, 66, 67
 68, 69, 70, 78, 79, 80, 81, 82, 83, 84, 92, 93, 94, 95, 96, 97
 98,
*Elset, elset=_Bottoms_S5, internal, instance=B-9-5
  8,  9, 10, 11, 12, 13, 14, 22, 23, 24, 25, 26, 27, 28, 36, 37
 38, 39, 40, 41, 42, 50, 51, 52, 53, 54, 55, 56, 64, 65, 66, 67
 68, 69, 70, 78, 79, 80, 81, 82, 83, 84, 92, 93, 94, 95, 96, 97
 98,
*Elset, elset=_Bottoms_S5, internal, instance=B-2-1
  8,  9, 10, 11, 12, 13, 14, 22, 23, 24, 25, 26, 27, 28, 36, 37
 38, 39, 40, 41, 42, 50, 51, 52, 53, 54, 55, 56, 64, 65, 66, 67
 68, 69, 70, 78, 79, 80, 81, 82, 83, 84, 92, 93, 94, 95, 96, 97
 98,
*Elset, elset=_Bottoms_S5, internal, instance=B-2-9
  8,  9, 10, 11, 12, 13, 14, 22, 23, 24, 25, 26, 27, 28, 36, 37
 38, 39, 40, 41, 42, 50, 51, 52, 53, 54, 55, 56, 64, 65, 66, 67
 68, 69, 70, 78, 79, 80, 81, 82, 83, 84, 92, 93, 94, 95, 96, 97
 98,
*Elset, elset=_Bottoms_S5, internal, instance=B-13-9
  8,  9, 10, 11, 12, 13, 14, 22, 23, 24, 25, 26, 27, 28, 36, 37
 38, 39, 40, 41, 42, 50, 51, 52, 53, 54, 55, 56, 64, 65, 66, 67
 68, 69, 70, 78, 79, 80, 81, 82, 83, 84, 92, 93, 94, 95, 96, 97
 98,
*Elset, elset=_Bottoms_S5, internal, instance=B-18-6
  8,  9, 10, 11, 12, 13, 14, 22, 23, 24, 25, 26, 27, 28, 36, 37
 38, 39, 40, 41, 42, 50, 51, 52, 53, 54, 55, 56, 64, 65, 66, 67
 68, 69, 70, 78, 79, 80, 81, 82, 83, 84, 92, 93, 94, 95, 96, 97
 98,
*Elset, elset=_Bottoms_S5, internal, instance=B-6-9
  8,  9, 10, 11, 12, 13, 14, 22, 23, 24, 25, 26, 27, 28, 36, 37
 38, 39, 40, 41, 42, 50, 51, 52, 53, 54, 55, 56, 64, 65, 66, 67
 68, 69, 70, 78, 79, 80, 81, 82, 83, 84, 92, 93, 94, 95, 96, 97
 98,
*Elset, elset=_Bottoms_S5, internal, instance=B-14-3
  8,  9, 10, 11, 12, 13, 14, 22, 23, 24, 25, 26, 27, 28, 36, 37
 38, 39, 40, 41, 42, 50, 51, 52, 53, 54, 55, 56, 64, 65, 66, 67
 68, 69, 70, 78, 79, 80, 81, 82, 83, 84, 92, 93, 94, 95, 96, 97
 98,
*Elset, elset=_Bottoms_S5, internal, instance=B-21-4
  8,  9, 10, 11, 12, 13, 14, 22, 23, 24, 25, 26, 27, 28, 36, 37
 38, 39, 40, 41, 42, 50, 51, 52, 53, 54, 55, 56, 64, 65, 66, 67
 68, 69, 70, 78, 79, 80, 81, 82, 83, 84, 92, 93, 94, 95, 96, 97
 98,
*Elset, elset=_Bottoms_S5, internal, instance=B-10-5
  8,  9, 10, 11, 12, 13, 14, 22, 23, 24, 25, 26, 27, 28, 36, 37
 38, 39, 40, 41, 42, 50, 51, 52, 53, 54, 55, 56, 64, 65, 66, 67
 68, 69, 70, 78, 79, 80, 81, 82, 83, 84, 92, 93, 94, 95, 96, 97
 98,
*Elset, elset=_Bottoms_S5, internal, instance=B-5-8
  8,  9, 10, 11, 12, 13, 14, 22, 23, 24, 25, 26, 27, 28, 36, 37
 38, 39, 40, 41, 42, 50, 51, 52, 53, 54, 55, 56, 64, 65, 66, 67
 68, 69, 70, 78, 79, 80, 81, 82, 83, 84, 92, 93, 94, 95, 96, 97
 98,
*Elset, elset=_Bottoms_S5, internal, instance=B-10-4
  8,  9, 10, 11, 12, 13, 14, 22, 23, 24, 25, 26, 27, 28, 36, 37
 38, 39, 40, 41, 42, 50, 51, 52, 53, 54, 55, 56, 64, 65, 66, 67
 68, 69, 70, 78, 79, 80, 81, 82, 83, 84, 92, 93, 94, 95, 96, 97
 98,
*Elset, elset=_Bottoms_S5, internal, instance=B-18-7
  8,  9, 10, 11, 12, 13, 14, 22, 23, 24, 25, 26, 27, 28, 36, 37
 38, 39, 40, 41, 42, 50, 51, 52, 53, 54, 55, 56, 64, 65, 66, 67
 68, 69, 70, 78, 79, 80, 81, 82, 83, 84, 92, 93, 94, 95, 96, 97
 98,
*Elset, elset=_Bottoms_S5, internal, instance=B-13-2
  8,  9, 10, 11, 12, 13, 14, 22, 23, 24, 25, 26, 27, 28, 36, 37
 38, 39, 40, 41, 42, 50, 51, 52, 53, 54, 55, 56, 64, 65, 66, 67
 68, 69, 70, 78, 79, 80, 81, 82, 83, 84, 92, 93, 94, 95, 96, 97
 98,
*Elset, elset=_Bottoms_S5, internal, instance=B-22-1
  8,  9, 10, 11, 12, 13, 14, 22, 23, 24, 25, 26, 27, 28, 36, 37
 38, 39, 40, 41, 42, 50, 51, 52, 53, 54, 55, 56, 64, 65, 66, 67
 68, 69, 70, 78, 79, 80, 81, 82, 83, 84, 92, 93, 94, 95, 96, 97
 98,
*Elset, elset=_Bottoms_S5, internal, instance=B-17-10
  8,  9, 10, 11, 12, 13, 14, 22, 23, 24, 25, 26, 27, 28, 36, 37
 38, 39, 40, 41, 42, 50, 51, 52, 53, 54, 55, 56
*Elset, elset=_Bottoms_S5, internal, instance=B-10-8
  8,  9, 10, 11, 12, 13, 14, 22, 23, 24, 25, 26, 27, 28, 36, 37
 38, 39, 40, 41, 42, 50, 51, 52, 53, 54, 55, 56, 64, 65, 66, 67
 68, 69, 70, 78, 79, 80, 81, 82, 83, 84, 92, 93, 94, 95, 96, 97
 98,
*Elset, elset=_Bottoms_S5, internal, instance=B-13-6
  8,  9, 10, 11, 12, 13, 14, 22, 23, 24, 25, 26, 27, 28, 36, 37
 38, 39, 40, 41, 42, 50, 51, 52, 53, 54, 55, 56, 64, 65, 66, 67
 68, 69, 70, 78, 79, 80, 81, 82, 83, 84, 92, 93, 94, 95, 96, 97
 98,
*Elset, elset=_Bottoms_S5, internal, instance=B-22-9
  8,  9, 10, 11, 12, 13, 14, 22, 23, 24, 25, 26, 27, 28, 36, 37
 38, 39, 40, 41, 42, 50, 51, 52, 53, 54, 55, 56, 64, 65, 66, 67
 68, 69, 70, 78, 79, 80, 81, 82, 83, 84, 92, 93, 94, 95, 96, 97
 98,
*Elset, elset=_Bottoms_S5, internal, instance=B-9-3
  8,  9, 10, 11, 12, 13, 14, 22, 23, 24, 25, 26, 27, 28, 36, 37
 38, 39, 40, 41, 42, 50, 51, 52, 53, 54, 55, 56, 64, 65, 66, 67
 68, 69, 70, 78, 79, 80, 81, 82, 83, 84, 92, 93, 94, 95, 96, 97
 98,
*Elset, elset=_Bottoms_S5, internal, instance=B-18-2
  8,  9, 10, 11, 12, 13, 14, 22, 23, 24, 25, 26, 27, 28, 36, 37
 38, 39, 40, 41, 42, 50, 51, 52, 53, 54, 55, 56, 64, 65, 66, 67
 68, 69, 70, 78, 79, 80, 81, 82, 83, 84, 92, 93, 94, 95, 96, 97
 98,
*Elset, elset=_Bottoms_S5, internal, instance=B-6-1
  8,  9, 10, 11, 12, 13, 14, 22, 23, 24, 25, 26, 27, 28, 36, 37
 38, 39, 40, 41, 42, 50, 51, 52, 53, 54, 55, 56, 64, 65, 66, 67
 68, 69, 70, 78, 79, 80, 81, 82, 83, 84, 92, 93, 94, 95, 96, 97
 98,
*Elset, elset=_Bottoms_S5, internal, instance=B-21-8
  8,  9, 10, 11, 12, 13, 14, 22, 23, 24, 25, 26, 27, 28, 36, 37
 38, 39, 40, 41, 42, 50, 51, 52, 53, 54, 55, 56, 64, 65, 66, 67
 68, 69, 70, 78, 79, 80, 81, 82, 83, 84, 92, 93, 94, 95, 96, 97
 98,
*Elset, elset=_Bottoms_S5, internal, instance=B-5-4
  8,  9, 10, 11, 12, 13, 14, 22, 23, 24, 25, 26, 27, 28, 36, 37
 38, 39, 40, 41, 42, 50, 51, 52, 53, 54, 55, 56, 64, 65, 66, 67
 68, 69, 70, 78, 79, 80, 81, 82, 83, 84, 92, 93, 94, 95, 96, 97
 98,
*Elset, elset=_Bottoms_S5, internal, instance=B-13-7
  8,  9, 10, 11, 12, 13, 14, 22, 23, 24, 25, 26, 27, 28, 36, 37
 38, 39, 40, 41, 42, 50, 51, 52, 53, 54, 55, 56, 64, 65, 66, 67
 68, 69, 70, 78, 79, 80, 81, 82, 83, 84, 92, 93, 94, 95, 96, 97
 98,
*Elset, elset=_Bottoms_S5, internal, instance=B-9-1
  8,  9, 10, 11, 12, 13, 14, 22, 23, 24, 25, 26, 27, 28, 36, 37
 38, 39, 40, 41, 42, 50, 51, 52, 53, 54, 55, 56
*Elset, elset=_Bottoms_S5, internal, instance=B-17-5
  8,  9, 10, 11, 12, 13, 14, 22, 23, 24, 25, 26, 27, 28, 36, 37
 38, 39, 40, 41, 42, 50, 51, 52, 53, 54, 55, 56, 64, 65, 66, 67
 68, 69, 70, 78, 79, 80, 81, 82, 83, 84, 92, 93, 94, 95, 96, 97
 98,
*Elset, elset=_Bottoms_S5, internal, instance=B-1-7
  8,  9, 10, 11, 12, 13, 14, 22, 23, 24, 25, 26, 27, 28, 36, 37
 38, 39, 40, 41, 42, 50, 51, 52, 53, 54, 55, 56, 64, 65, 66, 67
 68, 69, 70, 78, 79, 80, 81, 82, 83, 84, 92, 93, 94, 95, 96, 97
 98,
*Elset, elset=_Bottoms_S5, internal, instance=B-1-5
  8,  9, 10, 11, 12, 13, 14, 22, 23, 24, 25, 26, 27, 28, 36, 37
 38, 39, 40, 41, 42, 50, 51, 52, 53, 54, 55, 56, 64, 65, 66, 67
 68, 69, 70, 78, 79, 80, 81, 82, 83, 84, 92, 93, 94, 95, 96, 97
 98,
*Elset, elset=_Bottoms_S5, internal, instance=B-2-4
  8,  9, 10, 11, 12, 13, 14, 22, 23, 24, 25, 26, 27, 28, 36, 37
 38, 39, 40, 41, 42, 50, 51, 52, 53, 54, 55, 56, 64, 65, 66, 67
 68, 69, 70, 78, 79, 80, 81, 82, 83, 84, 92, 93, 94, 95, 96, 97
 98,
*Elset, elset=_Bottoms_S5, internal, instance=B-3-9
  8,  9, 10, 11, 12, 13, 14, 22, 23, 24, 25, 26, 27, 28, 36, 37
 38, 39, 40, 41, 42, 50, 51, 52, 53, 54, 55, 56, 64, 65, 66, 67
 68, 69, 70, 78, 79, 80, 81, 82, 83, 84, 92, 93, 94, 95, 96, 97
 98,
*Elset, elset=_Bottoms_S5, internal, instance=B-8-6
  8,  9, 10, 11, 12, 13, 14, 22, 23, 24, 25, 26, 27, 28, 36, 37
 38, 39, 40, 41, 42, 50, 51, 52, 53, 54, 55, 56, 64, 65, 66, 67
 68, 69, 70, 78, 79, 80, 81, 82, 83, 84, 92, 93, 94, 95, 96, 97
 98,
*Elset, elset=_Bottoms_S5, internal, instance=B-15-1
  8,  9, 10, 11, 12, 13, 14, 22, 23, 24, 25, 26, 27, 28, 36, 37
 38, 39, 40, 41, 42, 50, 51, 52, 53, 54, 55, 56
*Elset, elset=_Bottoms_S5, internal, instance=B-4-3
  8,  9, 10, 11, 12, 13, 14, 22, 23, 24, 25, 26, 27, 28, 36, 37
 38, 39, 40, 41, 42, 50, 51, 52, 53, 54, 55, 56, 64, 65, 66, 67
 68, 69, 70, 78, 79, 80, 81, 82, 83, 84, 92, 93, 94, 95, 96, 97
 98,
*Elset, elset=_Bottoms_S5, internal, instance=B-11-4
  8,  9, 10, 11, 12, 13, 14, 22, 23, 24, 25, 26, 27, 28, 36, 37
 38, 39, 40, 41, 42, 50, 51, 52, 53, 54, 55, 56, 64, 65, 66, 67
 68, 69, 70, 78, 79, 80, 81, 82, 83, 84, 92, 93, 94, 95, 96, 97
 98,
*Elset, elset=_Bottoms_S5, internal, instance=B-19-7
  8,  9, 10, 11, 12, 13, 14, 22, 23, 24, 25, 26, 27, 28, 36, 37
 38, 39, 40, 41, 42, 50, 51, 52, 53, 54, 55, 56, 64, 65, 66, 67
 68, 69, 70, 78, 79, 80, 81, 82, 83, 84, 92, 93, 94, 95, 96, 97
 98,
*Elset, elset=_Bottoms_S5, internal, instance=B-16-8
  8,  9, 10, 11, 12, 13, 14, 22, 23, 24, 25, 26, 27, 28, 36, 37
 38, 39, 40, 41, 42, 50, 51, 52, 53, 54, 55, 56, 64, 65, 66, 67
 68, 69, 70, 78, 79, 80, 81, 82, 83, 84, 92, 93, 94, 95, 96, 97
 98,
*Elset, elset=_Bottoms_S5, internal, instance=B-19-6
  8,  9, 10, 11, 12, 13, 14, 22, 23, 24, 25, 26, 27, 28, 36, 37
 38, 39, 40, 41, 42, 50, 51, 52, 53, 54, 55, 56, 64, 65, 66, 67
 68, 69, 70, 78, 79, 80, 81, 82, 83, 84, 92, 93, 94, 95, 96, 97
 98,
*Elset, elset=_Bottoms_S5, internal, instance=B-8-7
  8,  9, 10, 11, 12, 13, 14, 22, 23, 24, 25, 26, 27, 28, 36, 37
 38, 39, 40, 41, 42, 50, 51, 52, 53, 54, 55, 56, 64, 65, 66, 67
 68, 69, 70, 78, 79, 80, 81, 82, 83, 84, 92, 93, 94, 95, 96, 97
 98,
*Elset, elset=_Bottoms_S5, internal, instance=B-15-3
  8,  9, 10, 11, 12, 13, 14, 22, 23, 24, 25, 26, 27, 28, 36, 37
 38, 39, 40, 41, 42, 50, 51, 52, 53, 54, 55, 56, 64, 65, 66, 67
 68, 69, 70, 78, 79, 80, 81, 82, 83, 84, 92, 93, 94, 95, 96, 97
 98,
*Elset, elset=_Bottoms_S5, internal, instance=B-3-2
  8,  9, 10, 11, 12, 13, 14, 22, 23, 24, 25, 26, 27, 28, 36, 37
 38, 39, 40, 41, 42, 50, 51, 52, 53, 54, 55, 56, 64, 65, 66, 67
 68, 69, 70, 78, 79, 80, 81, 82, 83, 84, 92, 93, 94, 95, 96, 97
 98,
*Elset, elset=_Bottoms_S5, internal, instance=B-12-1
  8,  9, 10, 11, 12, 13, 14, 22, 23, 24, 25, 26, 27, 28, 36, 37
 38, 39, 40, 41, 42, 50, 51, 52, 53, 54, 55, 56, 64, 65, 66, 67
 68, 69, 70, 78, 79, 80, 81, 82, 83, 84, 92, 93, 94, 95, 96, 97
 98,
*Elset, elset=_Bottoms_S5, internal, instance=B-7-10
  8,  9, 10, 11, 12, 13, 14, 22, 23, 24, 25, 26, 27, 28, 36, 37
 38, 39, 40, 41, 42, 50, 51, 52, 53, 54, 55, 56
*Elset, elset=_Bottoms_S5, internal, instance=B-19-9
  8,  9, 10, 11, 12, 13, 14, 22, 23, 24, 25, 26, 27, 28, 36, 37
 38, 39, 40, 41, 42, 50, 51, 52, 53, 54, 55, 56, 64, 65, 66, 67
 68, 69, 70, 78, 79, 80, 81, 82, 83, 84, 92, 93, 94, 95, 96, 97
 98,
*Elset, elset=_Bottoms_S5, internal, instance=B-3-6
  8,  9, 10, 11, 12, 13, 14, 22, 23, 24, 25, 26, 27, 28, 36, 37
 38, 39, 40, 41, 42, 50, 51, 52, 53, 54, 55, 56, 64, 65, 66, 67
 68, 69, 70, 78, 79, 80, 81, 82, 83, 84, 92, 93, 94, 95, 96, 97
 98,
*Elset, elset=_Bottoms_S5, internal, instance=B-12-9
  8,  9, 10, 11, 12, 13, 14, 22, 23, 24, 25, 26, 27, 28, 36, 37
 38, 39, 40, 41, 42, 50, 51, 52, 53, 54, 55, 56, 64, 65, 66, 67
 68, 69, 70, 78, 79, 80, 81, 82, 83, 84, 92, 93, 94, 95, 96, 97
 98,
*Elset, elset=_Bottoms_S5, internal, instance=B-20-3
  8,  9, 10, 11, 12, 13, 14, 22, 23, 24, 25, 26, 27, 28, 36, 37
 38, 39, 40, 41, 42, 50, 51, 52, 53, 54, 55, 56, 64, 65, 66, 67
 68, 69, 70, 78, 79, 80, 81, 82, 83, 84, 92, 93, 94, 95, 96, 97
 98,
*Elset, elset=_Bottoms_S5, internal, instance=B-8-2
  8,  9, 10, 11, 12, 13, 14, 22, 23, 24, 25, 26, 27, 28, 36, 37
 38, 39, 40, 41, 42, 50, 51, 52, 53, 54, 55, 56, 64, 65, 66, 67
 68, 69, 70, 78, 79, 80, 81, 82, 83, 84, 92, 93, 94, 95, 96, 97
 98,
*Elset, elset=_Bottoms_S5, internal, instance=B-16-5
  8,  9, 10, 11, 12, 13, 14, 22, 23, 24, 25, 26, 27, 28, 36, 37
 38, 39, 40, 41, 42, 50, 51, 52, 53, 54, 55, 56, 64, 65, 66, 67
 68, 69, 70, 78, 79, 80, 81, 82, 83, 84, 92, 93, 94, 95, 96, 97
 98,
*Elset, elset=_Bottoms_S5, internal, instance=B-11-8
  8,  9, 10, 11, 12, 13, 14, 22, 23, 24, 25, 26, 27, 28, 36, 37
 38, 39, 40, 41, 42, 50, 51, 52, 53, 54, 55, 56, 64, 65, 66, 67
 68, 69, 70, 78, 79, 80, 81, 82, 83, 84, 92, 93, 94, 95, 96, 97
 98,
*Elset, elset=_Bottoms_S5, internal, instance=B-16-4
  8,  9, 10, 11, 12, 13, 14, 22, 23, 24, 25, 26, 27, 28, 36, 37
 38, 39, 40, 41, 42, 50, 51, 52, 53, 54, 55, 56, 64, 65, 66, 67
 68, 69, 70, 78, 79, 80, 81, 82, 83, 84, 92, 93, 94, 95, 96, 97
 98,
*Elset, elset=_Bottoms_S5, internal, instance=B-3-7
  8,  9, 10, 11, 12, 13, 14, 22, 23, 24, 25, 26, 27, 28, 36, 37
 38, 39, 40, 41, 42, 50, 51, 52, 53, 54, 55, 56, 64, 65, 66, 67
 68, 69, 70, 78, 79, 80, 81, 82, 83, 84, 92, 93, 94, 95, 96, 97
 98,
*Elset, elset=_Bottoms_S5, internal, instance=B-19-2
  8,  9, 10, 11, 12, 13, 14, 22, 23, 24, 25, 26, 27, 28, 36, 37
 38, 39, 40, 41, 42, 50, 51, 52, 53, 54, 55, 56, 64, 65, 66, 67
 68, 69, 70, 78, 79, 80, 81, 82, 83, 84, 92, 93, 94, 95, 96, 97
 98,
*Elset, elset=_Bottoms_S5, internal, instance=B-7-5
  8,  9, 10, 11, 12, 13, 14, 22, 23, 24, 25, 26, 27, 28, 36, 37
 38, 39, 40, 41, 42, 50, 51, 52, 53, 54, 55, 56, 64, 65, 66, 67
 68, 69, 70, 78, 79, 80, 81, 82, 83, 84, 92, 93, 94, 95, 96, 97
 98,
*Elset, elset=_Bottoms_S5, internal, instance=B-1-1
  8,  9, 10, 11, 12, 13, 14, 22, 23, 24, 25, 26, 27, 28, 36, 37
 38, 39, 40, 41, 42, 50, 51, 52, 53, 54, 55, 56
*Elset, elset=_Bottoms_S5, internal, instance=B-2-8
  8,  9, 10, 11, 12, 13, 14, 22, 23, 24, 25, 26, 27, 28, 36, 37
 38, 39, 40, 41, 42, 50, 51, 52, 53, 54, 55, 56, 64, 65, 66, 67
 68, 69, 70, 78, 79, 80, 81, 82, 83, 84, 92, 93, 94, 95, 96, 97
 98,
*Elset, elset=_Bottoms_S5, internal, instance=B-11-9
  8,  9, 10, 11, 12, 13, 14, 22, 23, 24, 25, 26, 27, 28, 36, 37
 38, 39, 40, 41, 42, 50, 51, 52, 53, 54, 55, 56, 64, 65, 66, 67
 68, 69, 70, 78, 79, 80, 81, 82, 83, 84, 92, 93, 94, 95, 96, 97
 98,
*Elset, elset=_Bottoms_S5, internal, instance=B-16-6
  8,  9, 10, 11, 12, 13, 14, 22, 23, 24, 25, 26, 27, 28, 36, 37
 38, 39, 40, 41, 42, 50, 51, 52, 53, 54, 55, 56, 64, 65, 66, 67
 68, 69, 70, 78, 79, 80, 81, 82, 83, 84, 92, 93, 94, 95, 96, 97
 98,
*Elset, elset=_Bottoms_S5, internal, instance=B-4-9
  8,  9, 10, 11, 12, 13, 14, 22, 23, 24, 25, 26, 27, 28, 36, 37
 38, 39, 40, 41, 42, 50, 51, 52, 53, 54, 55, 56, 64, 65, 66, 67
 68, 69, 70, 78, 79, 80, 81, 82, 83, 84, 92, 93, 94, 95, 96, 97
 98,
*Elset, elset=_Bottoms_S5, internal, instance=B-12-3
  8,  9, 10, 11, 12, 13, 14, 22, 23, 24, 25, 26, 27, 28, 36, 37
 38, 39, 40, 41, 42, 50, 51, 52, 53, 54, 55, 56, 64, 65, 66, 67
 68, 69, 70, 78, 79, 80, 81, 82, 83, 84, 92, 93, 94, 95, 96, 97
 98,
*Elset, elset=_Bottoms_S5, internal, instance=B-19-4
  8,  9, 10, 11, 12, 13, 14, 22, 23, 24, 25, 26, 27, 28, 36, 37
 38, 39, 40, 41, 42, 50, 51, 52, 53, 54, 55, 56, 64, 65, 66, 67
 68, 69, 70, 78, 79, 80, 81, 82, 83, 84, 92, 93, 94, 95, 96, 97
 98,
*Elset, elset=_Bottoms_S5, internal, instance=B-8-5
  8,  9, 10, 11, 12, 13, 14, 22, 23, 24, 25, 26, 27, 28, 36, 37
 38, 39, 40, 41, 42, 50, 51, 52, 53, 54, 55, 56, 64, 65, 66, 67
 68, 69, 70, 78, 79, 80, 81, 82, 83, 84, 92, 93, 94, 95, 96, 97
 98,
*Elset, elset=_Bottoms_S5, internal, instance=B-3-8
  8,  9, 10, 11, 12, 13, 14, 22, 23, 24, 25, 26, 27, 28, 36, 37
 38, 39, 40, 41, 42, 50, 51, 52, 53, 54, 55, 56, 64, 65, 66, 67
 68, 69, 70, 78, 79, 80, 81, 82, 83, 84, 92, 93, 94, 95, 96, 97
 98,
*Elset, elset=_Bottoms_S5, internal, instance=B-8-4
  8,  9, 10, 11, 12, 13, 14, 22, 23, 24, 25, 26, 27, 28, 36, 37
 38, 39, 40, 41, 42, 50, 51, 52, 53, 54, 55, 56, 64, 65, 66, 67
 68, 69, 70, 78, 79, 80, 81, 82, 83, 84, 92, 93, 94, 95, 96, 97
 98,
*Elset, elset=_Bottoms_S5, internal, instance=B-16-7
  8,  9, 10, 11, 12, 13, 14, 22, 23, 24, 25, 26, 27, 28, 36, 37
 38, 39, 40, 41, 42, 50, 51, 52, 53, 54, 55, 56, 64, 65, 66, 67
 68, 69, 70, 78, 79, 80, 81, 82, 83, 84, 92, 93, 94, 95, 96, 97
 98,
*Elset, elset=_Bottoms_S5, internal, instance=B-11-2
  8,  9, 10, 11, 12, 13, 14, 22, 23, 24, 25, 26, 27, 28, 36, 37
 38, 39, 40, 41, 42, 50, 51, 52, 53, 54, 55, 56, 64, 65, 66, 67
 68, 69, 70, 78, 79, 80, 81, 82, 83, 84, 92, 93, 94, 95, 96, 97
 98,
*Elset, elset=_Bottoms_S5, internal, instance=B-20-1
  8,  9, 10, 11, 12, 13, 14, 22, 23, 24, 25, 26, 27, 28, 36, 37
 38, 39, 40, 41, 42, 50, 51, 52, 53, 54, 55, 56, 64, 65, 66, 67
 68, 69, 70, 78, 79, 80, 81, 82, 83, 84, 92, 93, 94, 95, 96, 97
 98,
*Elset, elset=_Bottoms_S5, internal, instance=B-15-10
  8,  9, 10, 11, 12, 13, 14, 22, 23, 24, 25, 26, 27, 28, 36, 37
 38, 39, 40, 41, 42, 50, 51, 52, 53, 54, 55, 56
*Elset, elset=_Bottoms_S5, internal, instance=B-8-8
  8,  9, 10, 11, 12, 13, 14, 22, 23, 24, 25, 26, 27, 28, 36, 37
 38, 39, 40, 41, 42, 50, 51, 52, 53, 54, 55, 56, 64, 65, 66, 67
 68, 69, 70, 78, 79, 80, 81, 82, 83, 84, 92, 93, 94, 95, 96, 97
 98,
*Elset, elset=_Bottoms_S5, internal, instance=B-11-6
  8,  9, 10, 11, 12, 13, 14, 22, 23, 24, 25, 26, 27, 28, 36, 37
 38, 39, 40, 41, 42, 50, 51, 52, 53, 54, 55, 56, 64, 65, 66, 67
 68, 69, 70, 78, 79, 80, 81, 82, 83, 84, 92, 93, 94, 95, 96, 97
 98,
*Elset, elset=_Bottoms_S5, internal, instance=B-20-9
  8,  9, 10, 11, 12, 13, 14, 22, 23, 24, 25, 26, 27, 28, 36, 37
 38, 39, 40, 41, 42, 50, 51, 52, 53, 54, 55, 56, 64, 65, 66, 67
 68, 69, 70, 78, 79, 80, 81, 82, 83, 84, 92, 93, 94, 95, 96, 97
 98,
*Elset, elset=_Bottoms_S5, internal, instance=B-7-3
  8,  9, 10, 11, 12, 13, 14, 22, 23, 24, 25, 26, 27, 28, 36, 37
 38, 39, 40, 41, 42, 50, 51, 52, 53, 54, 55, 56, 64, 65, 66, 67
 68, 69, 70, 78, 79, 80, 81, 82, 83, 84, 92, 93, 94, 95, 96, 97
 98,
*Elset, elset=_Bottoms_S5, internal, instance=B-16-2
  8,  9, 10, 11, 12, 13, 14, 22, 23, 24, 25, 26, 27, 28, 36, 37
 38, 39, 40, 41, 42, 50, 51, 52, 53, 54, 55, 56, 64, 65, 66, 67
 68, 69, 70, 78, 79, 80, 81, 82, 83, 84, 92, 93, 94, 95, 96, 97
 98,
*Elset, elset=_Bottoms_S5, internal, instance=B-4-1
  8,  9, 10, 11, 12, 13, 14, 22, 23, 24, 25, 26, 27, 28, 36, 37
 38, 39, 40, 41, 42, 50, 51, 52, 53, 54, 55, 56, 64, 65, 66, 67
 68, 69, 70, 78, 79, 80, 81, 82, 83, 84, 92, 93, 94, 95, 96, 97
 98,
*Elset, elset=_Bottoms_S5, internal, instance=B-19-8
  8,  9, 10, 11, 12, 13, 14, 22, 23, 24, 25, 26, 27, 28, 36, 37
 38, 39, 40, 41, 42, 50, 51, 52, 53, 54, 55, 56, 64, 65, 66, 67
 68, 69, 70, 78, 79, 80, 81, 82, 83, 84, 92, 93, 94, 95, 96, 97
 98,
*Elset, elset=_Bottoms_S5, internal, instance=B-3-4
  8,  9, 10, 11, 12, 13, 14, 22, 23, 24, 25, 26, 27, 28, 36, 37
 38, 39, 40, 41, 42, 50, 51, 52, 53, 54, 55, 56, 64, 65, 66, 67
 68, 69, 70, 78, 79, 80, 81, 82, 83, 84, 92, 93, 94, 95, 96, 97
 98,
*Elset, elset=_Bottoms_S5, internal, instance=B-11-7
  8,  9, 10, 11, 12, 13, 14, 22, 23, 24, 25, 26, 27, 28, 36, 37
 38, 39, 40, 41, 42, 50, 51, 52, 53, 54, 55, 56, 64, 65, 66, 67
 68, 69, 70, 78, 79, 80, 81, 82, 83, 84, 92, 93, 94, 95, 96, 97
 98,
*Elset, elset=_Bottoms_S5, internal, instance=B-7-1
  8,  9, 10, 11, 12, 13, 14, 22, 23, 24, 25, 26, 27, 28, 36, 37
 38, 39, 40, 41, 42, 50, 51, 52, 53, 54, 55, 56
*Elset, elset=_Bottoms_S5, internal, instance=B-15-5
  8,  9, 10, 11, 12, 13, 14, 22, 23, 24, 25, 26, 27, 28, 36, 37
 38, 39, 40, 41, 42, 50, 51, 52, 53, 54, 55, 56, 64, 65, 66, 67
 68, 69, 70, 78, 79, 80, 81, 82, 83, 84, 92, 93, 94, 95, 96, 97
 98,
*Elset, elset=_Bottoms_S5, internal, instance=B-1-3
  8,  9, 10, 11, 12, 13, 14, 22, 23, 24, 25, 26, 27, 28, 36, 37
 38, 39, 40, 41, 42, 50, 51, 52, 53, 54, 55, 56, 64, 65, 66, 67
 68, 69, 70, 78, 79, 80, 81, 82, 83, 84, 92, 93, 94, 95, 96, 97
 98,
*Elset, elset=_Bottoms_S5, internal, instance=B-2-6
  8,  9, 10, 11, 12, 13, 14, 22, 23, 24, 25, 26, 27, 28, 36, 37
 38, 39, 40, 41, 42, 50, 51, 52, 53, 54, 55, 56, 64, 65, 66, 67
 68, 69, 70, 78, 79, 80, 81, 82, 83, 84, 92, 93, 94, 95, 96, 97
 98,
*Elset, elset=_Bottoms_S5, internal, instance=B-7-9
  8,  9, 10, 11, 12, 13, 14, 22, 23, 24, 25, 26, 27, 28, 36, 37
 38, 39, 40, 41, 42, 50, 51, 52, 53, 54, 55, 56, 64, 65, 66, 67
 68, 69, 70, 78, 79, 80, 81, 82, 83, 84, 92, 93, 94, 95, 96, 97
 98,
*Elset, elset=_Bottoms_S5, internal, instance=B-12-6
  8,  9, 10, 11, 12, 13, 14, 22, 23, 24, 25, 26, 27, 28, 36, 37
 38, 39, 40, 41, 42, 50, 51, 52, 53, 54, 55, 56, 64, 65, 66, 67
 68, 69, 70, 78, 79, 80, 81, 82, 83, 84, 92, 93, 94, 95, 96, 97
 98,
*Elset, elset=_Bottoms_S5, internal, instance=B-19-1
  8,  9, 10, 11, 12, 13, 14, 22, 23, 24, 25, 26, 27, 28, 36, 37
 38, 39, 40, 41, 42, 50, 51, 52, 53, 54, 55, 56
*Elset, elset=_Bottoms_S5, internal, instance=B-8-3
  8,  9, 10, 11, 12, 13, 14, 22, 23, 24, 25, 26, 27, 28, 36, 37
 38, 39, 40, 41, 42, 50, 51, 52, 53, 54, 55, 56, 64, 65, 66, 67
 68, 69, 70, 78, 79, 80, 81, 82, 83, 84, 92, 93, 94, 95, 96, 97
 98,
*Elset, elset=_Bottoms_S5, internal, instance=B-15-4
  8,  9, 10, 11, 12, 13, 14, 22, 23, 24, 25, 26, 27, 28, 36, 37
 38, 39, 40, 41, 42, 50, 51, 52, 53, 54, 55, 56, 64, 65, 66, 67
 68, 69, 70, 78, 79, 80, 81, 82, 83, 84, 92, 93, 94, 95, 96, 97
 98,
*Elset, elset=_Bottoms_S5, internal, instance=B-4-5
  8,  9, 10, 11, 12, 13, 14, 22, 23, 24, 25, 26, 27, 28, 36, 37
 38, 39, 40, 41, 42, 50, 51, 52, 53, 54, 55, 56, 64, 65, 66, 67
 68, 69, 70, 78, 79, 80, 81, 82, 83, 84, 92, 93, 94, 95, 96, 97
 98,
*Elset, elset=_Bottoms_S5, internal, instance=B-20-8
  8,  9, 10, 11, 12, 13, 14, 22, 23, 24, 25, 26, 27, 28, 36, 37
 38, 39, 40, 41, 42, 50, 51, 52, 53, 54, 55, 56, 64, 65, 66, 67
 68, 69, 70, 78, 79, 80, 81, 82, 83, 84, 92, 93, 94, 95, 96, 97
 98,
*Elset, elset=_Bottoms_S5, internal, instance=B-4-4
  8,  9, 10, 11, 12, 13, 14, 22, 23, 24, 25, 26, 27, 28, 36, 37
 38, 39, 40, 41, 42, 50, 51, 52, 53, 54, 55, 56, 64, 65, 66, 67
 68, 69, 70, 78, 79, 80, 81, 82, 83, 84, 92, 93, 94, 95, 96, 97
 98,
*Elset, elset=_Bottoms_S5, internal, instance=B-12-7
  8,  9, 10, 11, 12, 13, 14, 22, 23, 24, 25, 26, 27, 28, 36, 37
 38, 39, 40, 41, 42, 50, 51, 52, 53, 54, 55, 56, 64, 65, 66, 67
 68, 69, 70, 78, 79, 80, 81, 82, 83, 84, 92, 93, 94, 95, 96, 97
 98,
*Elset, elset=_Bottoms_S5, internal, instance=B-19-3
  8,  9, 10, 11, 12, 13, 14, 22, 23, 24, 25, 26, 27, 28, 36, 37
 38, 39, 40, 41, 42, 50, 51, 52, 53, 54, 55, 56, 64, 65, 66, 67
 68, 69, 70, 78, 79, 80, 81, 82, 83, 84, 92, 93, 94, 95, 96, 97
 98,
*Elset, elset=_Bottoms_S5, internal, instance=B-7-2
  8,  9, 10, 11, 12, 13, 14, 22, 23, 24, 25, 26, 27, 28, 36, 37
 38, 39, 40, 41, 42, 50, 51, 52, 53, 54, 55, 56, 64, 65, 66, 67
 68, 69, 70, 78, 79, 80, 81, 82, 83, 84, 92, 93, 94, 95, 96, 97
 98,
*Elset, elset=_Bottoms_S5, internal, instance=B-16-1
  8,  9, 10, 11, 12, 13, 14, 22, 23, 24, 25, 26, 27, 28, 36, 37
 38, 39, 40, 41, 42, 50, 51, 52, 53, 54, 55, 56, 64, 65, 66, 67
 68, 69, 70, 78, 79, 80, 81, 82, 83, 84, 92, 93, 94, 95, 96, 97
 98,
*Elset, elset=_Bottoms_S5, internal, instance=B-11-10
  8,  9, 10, 11, 12, 13, 14, 22, 23, 24, 25, 26, 27, 28, 36, 37
 38, 39, 40, 41, 42, 50, 51, 52, 53, 54, 55, 56
*Elset, elset=_Bottoms_S5, internal, instance=B-4-8
  8,  9, 10, 11, 12, 13, 14, 22, 23, 24, 25, 26, 27, 28, 36, 37
 38, 39, 40, 41, 42, 50, 51, 52, 53, 54, 55, 56, 64, 65, 66, 67
 68, 69, 70, 78, 79, 80, 81, 82, 83, 84, 92, 93, 94, 95, 96, 97
 98,
*Elset, elset=_Bottoms_S5, internal, instance=B-7-6
  8,  9, 10, 11, 12, 13, 14, 22, 23, 24, 25, 26, 27, 28, 36, 37
 38, 39, 40, 41, 42, 50, 51, 52, 53, 54, 55, 56, 64, 65, 66, 67
 68, 69, 70, 78, 79, 80, 81, 82, 83, 84, 92, 93, 94, 95, 96, 97
 98,
*Elset, elset=_Bottoms_S5, internal, instance=B-16-9
  8,  9, 10, 11, 12, 13, 14, 22, 23, 24, 25, 26, 27, 28, 36, 37
 38, 39, 40, 41, 42, 50, 51, 52, 53, 54, 55, 56, 64, 65, 66, 67
 68, 69, 70, 78, 79, 80, 81, 82, 83, 84, 92, 93, 94, 95, 96, 97
 98,
*Elset, elset=_Bottoms_S5, internal, instance=B-3-3
  8,  9, 10, 11, 12, 13, 14, 22, 23, 24, 25, 26, 27, 28, 36, 37
 38, 39, 40, 41, 42, 50, 51, 52, 53, 54, 55, 56, 64, 65, 66, 67
 68, 69, 70, 78, 79, 80, 81, 82, 83, 84, 92, 93, 94, 95, 96, 97
 98,
*Elset, elset=_Bottoms_S5, internal, instance=B-12-2
  8,  9, 10, 11, 12, 13, 14, 22, 23, 24, 25, 26, 27, 28, 36, 37
 38, 39, 40, 41, 42, 50, 51, 52, 53, 54, 55, 56, 64, 65, 66, 67
 68, 69, 70, 78, 79, 80, 81, 82, 83, 84, 92, 93, 94, 95, 96, 97
 98,
*Elset, elset=_Bottoms_S5, internal, instance=B-20-5
  8,  9, 10, 11, 12, 13, 14, 22, 23, 24, 25, 26, 27, 28, 36, 37
 38, 39, 40, 41, 42, 50, 51, 52, 53, 54, 55, 56, 64, 65, 66, 67
 68, 69, 70, 78, 79, 80, 81, 82, 83, 84, 92, 93, 94, 95, 96, 97
 98,
*Elset, elset=_Bottoms_S5, internal, instance=B-15-8
  8,  9, 10, 11, 12, 13, 14, 22, 23, 24, 25, 26, 27, 28, 36, 37
 38, 39, 40, 41, 42, 50, 51, 52, 53, 54, 55, 56, 64, 65, 66, 67
 68, 69, 70, 78, 79, 80, 81, 82, 83, 84, 92, 93, 94, 95, 96, 97
 98,
*Elset, elset=_Bottoms_S5, internal, instance=B-20-4
  8,  9, 10, 11, 12, 13, 14, 22, 23, 24, 25, 26, 27, 28, 36, 37
 38, 39, 40, 41, 42, 50, 51, 52, 53, 54, 55, 56, 64, 65, 66, 67
 68, 69, 70, 78, 79, 80, 81, 82, 83, 84, 92, 93, 94, 95, 96, 97
 98,
*Elset, elset=_Bottoms_S5, internal, instance=B-7-7
  8,  9, 10, 11, 12, 13, 14, 22, 23, 24, 25, 26, 27, 28, 36, 37
 38, 39, 40, 41, 42, 50, 51, 52, 53, 54, 55, 56, 64, 65, 66, 67
 68, 69, 70, 78, 79, 80, 81, 82, 83, 84, 92, 93, 94, 95, 96, 97
 98,
*Elset, elset=_Bottoms_S5, internal, instance=B-3-1
  8,  9, 10, 11, 12, 13, 14, 22, 23, 24, 25, 26, 27, 28, 36, 37
 38, 39, 40, 41, 42, 50, 51, 52, 53, 54, 55, 56
*Elset, elset=_Bottoms_S5, internal, instance=B-11-5
  8,  9, 10, 11, 12, 13, 14, 22, 23, 24, 25, 26, 27, 28, 36, 37
 38, 39, 40, 41, 42, 50, 51, 52, 53, 54, 55, 56, 64, 65, 66, 67
 68, 69, 70, 78, 79, 80, 81, 82, 83, 84, 92, 93, 94, 95, 96, 97
 98,
*Elset, elset=_Bottoms_S5, internal, instance=B-2-2
  8,  9, 10, 11, 12, 13, 14, 22, 23, 24, 25, 26, 27, 28, 36, 37
 38, 39, 40, 41, 42, 50, 51, 52, 53, 54, 55, 56, 64, 65, 66, 67
 68, 69, 70, 78, 79, 80, 81, 82, 83, 84, 92, 93, 94, 95, 96, 97
 98,
*Elset, elset=_Bottoms_S5, internal, instance=B-3-10
  8,  9, 10, 11, 12, 13, 14, 22, 23, 24, 25, 26, 27, 28, 36, 37
 38, 39, 40, 41, 42, 50, 51, 52, 53, 54, 55, 56
*Elset, elset=_Bottoms_S5, internal, instance=B-15-9
  8,  9, 10, 11, 12, 13, 14, 22, 23, 24, 25, 26, 27, 28, 36, 37
 38, 39, 40, 41, 42, 50, 51, 52, 53, 54, 55, 56, 64, 65, 66, 67
 68, 69, 70, 78, 79, 80, 81, 82, 83, 84, 92, 93, 94, 95, 96, 97
 98,
*Elset, elset=_Bottoms_S5, internal, instance=B-20-6
  8,  9, 10, 11, 12, 13, 14, 22, 23, 24, 25, 26, 27, 28, 36, 37
 38, 39, 40, 41, 42, 50, 51, 52, 53, 54, 55, 56, 64, 65, 66, 67
 68, 69, 70, 78, 79, 80, 81, 82, 83, 84, 92, 93, 94, 95, 96, 97
 98,
*Elset, elset=_Bottoms_S5, internal, instance=B-8-9
  8,  9, 10, 11, 12, 13, 14, 22, 23, 24, 25, 26, 27, 28, 36, 37
 38, 39, 40, 41, 42, 50, 51, 52, 53, 54, 55, 56, 64, 65, 66, 67
 68, 69, 70, 78, 79, 80, 81, 82, 83, 84, 92, 93, 94, 95, 96, 97
 98,
*Elset, elset=_Bottoms_S5, internal, instance=B-16-3
  8,  9, 10, 11, 12, 13, 14, 22, 23, 24, 25, 26, 27, 28, 36, 37
 38, 39, 40, 41, 42, 50, 51, 52, 53, 54, 55, 56, 64, 65, 66, 67
 68, 69, 70, 78, 79, 80, 81, 82, 83, 84, 92, 93, 94, 95, 96, 97
 98,
*Elset, elset=_Bottoms_S5, internal, instance=B-4-2
  8,  9, 10, 11, 12, 13, 14, 22, 23, 24, 25, 26, 27, 28, 36, 37
 38, 39, 40, 41, 42, 50, 51, 52, 53, 54, 55, 56, 64, 65, 66, 67
 68, 69, 70, 78, 79, 80, 81, 82, 83, 84, 92, 93, 94, 95, 96, 97
 98,
*Elset, elset=_Bottoms_S5, internal, instance=B-12-5
  8,  9, 10, 11, 12, 13, 14, 22, 23, 24, 25, 26, 27, 28, 36, 37
 38, 39, 40, 41, 42, 50, 51, 52, 53, 54, 55, 56, 64, 65, 66, 67
 68, 69, 70, 78, 79, 80, 81, 82, 83, 84, 92, 93, 94, 95, 96, 97
 98,
*Elset, elset=_Bottoms_S5, internal, instance=B-7-8
  8,  9, 10, 11, 12, 13, 14, 22, 23, 24, 25, 26, 27, 28, 36, 37
 38, 39, 40, 41, 42, 50, 51, 52, 53, 54, 55, 56, 64, 65, 66, 67
 68, 69, 70, 78, 79, 80, 81, 82, 83, 84, 92, 93, 94, 95, 96, 97
 98,
*Elset, elset=_Bottoms_S5, internal, instance=B-12-4
  8,  9, 10, 11, 12, 13, 14, 22, 23, 24, 25, 26, 27, 28, 36, 37
 38, 39, 40, 41, 42, 50, 51, 52, 53, 54, 55, 56, 64, 65, 66, 67
 68, 69, 70, 78, 79, 80, 81, 82, 83, 84, 92, 93, 94, 95, 96, 97
 98,
*Elset, elset=_Bottoms_S5, internal, instance=B-20-7
  8,  9, 10, 11, 12, 13, 14, 22, 23, 24, 25, 26, 27, 28, 36, 37
 38, 39, 40, 41, 42, 50, 51, 52, 53, 54, 55, 56, 64, 65, 66, 67
 68, 69, 70, 78, 79, 80, 81, 82, 83, 84, 92, 93, 94, 95, 96, 97
 98,
*Elset, elset=_Bottoms_S5, internal, instance=B-15-2
  8,  9, 10, 11, 12, 13, 14, 22, 23, 24, 25, 26, 27, 28, 36, 37
 38, 39, 40, 41, 42, 50, 51, 52, 53, 54, 55, 56, 64, 65, 66, 67
 68, 69, 70, 78, 79, 80, 81, 82, 83, 84, 92, 93, 94, 95, 96, 97
 98,
*Elset, elset=_Bottoms_S5, internal, instance=B-3-5
  8,  9, 10, 11, 12, 13, 14, 22, 23, 24, 25, 26, 27, 28, 36, 37
 38, 39, 40, 41, 42, 50, 51, 52, 53, 54, 55, 56, 64, 65, 66, 67
 68, 69, 70, 78, 79, 80, 81, 82, 83, 84, 92, 93, 94, 95, 96, 97
 98,
*Elset, elset=_Bottoms_S5, internal, instance=B-19-10
  8,  9, 10, 11, 12, 13, 14, 22, 23, 24, 25, 26, 27, 28, 36, 37
 38, 39, 40, 41, 42, 50, 51, 52, 53, 54, 55, 56
*Elset, elset=_Bottoms_S5, internal, instance=B-12-8
  8,  9, 10, 11, 12, 13, 14, 22, 23, 24, 25, 26, 27, 28, 36, 37
 38, 39, 40, 41, 42, 50, 51, 52, 53, 54, 55, 56, 64, 65, 66, 67
 68, 69, 70, 78, 79, 80, 81, 82, 83, 84, 92, 93, 94, 95, 96, 97
 98,
*Elset, elset=_Bottoms_S5, internal, instance=B-15-6
  8,  9, 10, 11, 12, 13, 14, 22, 23, 24, 25, 26, 27, 28, 36, 37
 38, 39, 40, 41, 42, 50, 51, 52, 53, 54, 55, 56, 64, 65, 66, 67
 68, 69, 70, 78, 79, 80, 81, 82, 83, 84, 92, 93, 94, 95, 96, 97
 98,
*Elset, elset=_Bottoms_S5, internal, instance=B-4-7
  8,  9, 10, 11, 12, 13, 14, 22, 23, 24, 25, 26, 27, 28, 36, 37
 38, 39, 40, 41, 42, 50, 51, 52, 53, 54, 55, 56, 64, 65, 66, 67
 68, 69, 70, 78, 79, 80, 81, 82, 83, 84, 92, 93, 94, 95, 96, 97
 98,
*Elset, elset=_Bottoms_S5, internal, instance=B-11-3
  8,  9, 10, 11, 12, 13, 14, 22, 23, 24, 25, 26, 27, 28, 36, 37
 38, 39, 40, 41, 42, 50, 51, 52, 53, 54, 55, 56, 64, 65, 66, 67
 68, 69, 70, 78, 79, 80, 81, 82, 83, 84, 92, 93, 94, 95, 96, 97
 98,
*Elset, elset=_Bottoms_S5, internal, instance=B-20-2
  8,  9, 10, 11, 12, 13, 14, 22, 23, 24, 25, 26, 27, 28, 36, 37
 38, 39, 40, 41, 42, 50, 51, 52, 53, 54, 55, 56, 64, 65, 66, 67
 68, 69, 70, 78, 79, 80, 81, 82, 83, 84, 92, 93, 94, 95, 96, 97
 98,
*Elset, elset=_Bottoms_S5, internal, instance=B-8-1
  8,  9, 10, 11, 12, 13, 14, 22, 23, 24, 25, 26, 27, 28, 36, 37
 38, 39, 40, 41, 42, 50, 51, 52, 53, 54, 55, 56, 64, 65, 66, 67
 68, 69, 70, 78, 79, 80, 81, 82, 83, 84, 92, 93, 94, 95, 96, 97
 98,
*Elset, elset=_Bottoms_S5, internal, instance=B-4-6
  8,  9, 10, 11, 12, 13, 14, 22, 23, 24, 25, 26, 27, 28, 36, 37
 38, 39, 40, 41, 42, 50, 51, 52, 53, 54, 55, 56, 64, 65, 66, 67
 68, 69, 70, 78, 79, 80, 81, 82, 83, 84, 92, 93, 94, 95, 96, 97
 98,
*Elset, elset=_Bottoms_S5, internal, instance=B-7-4
  8,  9, 10, 11, 12, 13, 14, 22, 23, 24, 25, 26, 27, 28, 36, 37
 38, 39, 40, 41, 42, 50, 51, 52, 53, 54, 55, 56, 64, 65, 66, 67
 68, 69, 70, 78, 79, 80, 81, 82, 83, 84, 92, 93, 94, 95, 96, 97
 98,
*Elset, elset=_Bottoms_S5, internal, instance=B-15-7
  8,  9, 10, 11, 12, 13, 14, 22, 23, 24, 25, 26, 27, 28, 36, 37
 38, 39, 40, 41, 42, 50, 51, 52, 53, 54, 55, 56, 64, 65, 66, 67
 68, 69, 70, 78, 79, 80, 81, 82, 83, 84, 92, 93, 94, 95, 96, 97
 98,
*Elset, elset=_Bottoms_S5, internal, instance=B-11-1
  8,  9, 10, 11, 12, 13, 14, 22, 23, 24, 25, 26, 27, 28, 36, 37
 38, 39, 40, 41, 42, 50, 51, 52, 53, 54, 55, 56
*Elset, elset=_Bottoms_S5, internal, instance=B-19-5
  8,  9, 10, 11, 12, 13, 14, 22, 23, 24, 25, 26, 27, 28, 36, 37
 38, 39, 40, 41, 42, 50, 51, 52, 53, 54, 55, 56, 64, 65, 66, 67
 68, 69, 70, 78, 79, 80, 81, 82, 83, 84, 92, 93, 94, 95, 96, 97
 98,
*Surface, type=ELEMENT, name=Bottoms
_Bottoms_S5, S5
*Elset, elset=__PickedSurf456_S3, internal, instance=B-22-8
  1,  2,  3,  4,  5,  6,  7, 15, 16, 17, 18, 19, 20, 21, 29, 30
 31, 32, 33, 34, 35, 43, 44, 45, 46, 47, 48, 49, 57, 58, 59, 60
 61, 62, 63, 71, 72, 73, 74, 75, 76, 77, 85, 86, 87, 88, 89, 90
 91,
*Elset, elset=__PickedSurf456_S3, internal, instance=B-22-6
  1,  2,  3,  4,  5,  6,  7, 15, 16, 17, 18, 19, 20, 21, 29, 30
 31, 32, 33, 34, 35, 43, 44, 45, 46, 47, 48, 49, 57, 58, 59, 60
 61, 62, 63, 71, 72, 73, 74, 75, 76, 77, 85, 86, 87, 88, 89, 90
 91,
*Elset, elset=__PickedSurf456_S3, internal, instance=B-22-4
  1,  2,  3,  4,  5,  6,  7, 15, 16, 17, 18, 19, 20, 21, 29, 30
 31, 32, 33, 34, 35, 43, 44, 45, 46, 47, 48, 49, 57, 58, 59, 60
 61, 62, 63, 71, 72, 73, 74, 75, 76, 77, 85, 86, 87, 88, 89, 90
 91,
*Elset, elset=__PickedSurf456_S3, internal, instance=B-22-2
  1,  2,  3,  4,  5,  6,  7, 15, 16, 17, 18, 19, 20, 21, 29, 30
 31, 32, 33, 34, 35, 43, 44, 45, 46, 47, 48, 49, 57, 58, 59, 60
 61, 62, 63, 71, 72, 73, 74, 75, 76, 77, 85, 86, 87, 88, 89, 90
 91,
*Elset, elset=__PickedSurf456_S3, internal, instance=B-22-7
  1,  2,  3,  4,  5,  6,  7, 15, 16, 17, 18, 19, 20, 21, 29, 30
 31, 32, 33, 34, 35, 43, 44, 45, 46, 47, 48, 49, 57, 58, 59, 60
 61, 62, 63, 71, 72, 73, 74, 75, 76, 77, 85, 86, 87, 88, 89, 90
 91,
*Elset, elset=__PickedSurf456_S3, internal, instance=B-22-5
  1,  2,  3,  4,  5,  6,  7, 15, 16, 17, 18, 19, 20, 21, 29, 30
 31, 32, 33, 34, 35, 43, 44, 45, 46, 47, 48, 49, 57, 58, 59, 60
 61, 62, 63, 71, 72, 73, 74, 75, 76, 77, 85, 86, 87, 88, 89, 90
 91,
*Elset, elset=__PickedSurf456_S3, internal, instance=B-22-9
  1,  2,  3,  4,  5,  6,  7, 15, 16, 17, 18, 19, 20, 21, 29, 30
 31, 32, 33, 34, 35, 43, 44, 45, 46, 47, 48, 49, 57, 58, 59, 60
 61, 62, 63, 71, 72, 73, 74, 75, 76, 77, 85, 86, 87, 88, 89, 90
 91,
*Elset, elset=__PickedSurf456_S3, internal, instance=B-22-3
  1,  2,  3,  4,  5,  6,  7, 15, 16, 17, 18, 19, 20, 21, 29, 30
 31, 32, 33, 34, 35, 43, 44, 45, 46, 47, 48, 49, 57, 58, 59, 60
 61, 62, 63, 71, 72, 73, 74, 75, 76, 77, 85, 86, 87, 88, 89, 90
 91,
*Elset, elset=__PickedSurf456_S3, internal, instance=B-22-1
  1,  2,  3,  4,  5,  6,  7, 15, 16, 17, 18, 19, 20, 21, 29, 30
 31, 32, 33, 34, 35, 43, 44, 45, 46, 47, 48, 49, 57, 58, 59, 60
 61, 62, 63, 71, 72, 73, 74, 75, 76, 77, 85, 86, 87, 88, 89, 90
 91,
*Surface, type=ELEMENT, name=_PickedSurf456, internal
__PickedSurf456_S3, S3
*Elset, elset=__PickedSurf457_S3, internal, instance=B-21-10
  1,  2,  3,  4,  5,  6,  7, 15, 16, 17, 18, 19, 20, 21, 29, 30
 31, 32, 33, 34, 35, 43, 44, 45, 46, 47, 48, 49
*Elset, elset=__PickedSurf457_S3, internal, instance=B-21-9
  1,  2,  3,  4,  5,  6,  7, 15, 16, 17, 18, 19, 20, 21, 29, 30
 31, 32, 33, 34, 35, 43, 44, 45, 46, 47, 48, 49, 57, 58, 59, 60
 61, 62, 63, 71, 72, 73, 74, 75, 76, 77, 85, 86, 87, 88, 89, 90
 91,
*Elset, elset=__PickedSurf457_S3, internal, instance=B-21-8
  1,  2,  3,  4,  5,  6,  7, 15, 16, 17, 18, 19, 20, 21, 29, 30
 31, 32, 33, 34, 35, 43, 44, 45, 46, 47, 48, 49, 57, 58, 59, 60
 61, 62, 63, 71, 72, 73, 74, 75, 76, 77, 85, 86, 87, 88, 89, 90
 91,
*Elset, elset=__PickedSurf457_S3, internal, instance=B-21-1
  1,  2,  3,  4,  5,  6,  7, 15, 16, 17, 18, 19, 20, 21, 29, 30
 31, 32, 33, 34, 35, 43, 44, 45, 46, 47, 48, 49
*Elset, elset=__PickedSurf457_S3, internal, instance=B-21-5
  1,  2,  3,  4,  5,  6,  7, 15, 16, 17, 18, 19, 20, 21, 29, 30
 31, 32, 33, 34, 35, 43, 44, 45, 46, 47, 48, 49, 57, 58, 59, 60
 61, 62, 63, 71, 72, 73, 74, 75, 76, 77, 85, 86, 87, 88, 89, 90
 91,
*Elset, elset=__PickedSurf457_S3, internal, instance=B-21-3
  1,  2,  3,  4,  5,  6,  7, 15, 16, 17, 18, 19, 20, 21, 29, 30
 31, 32, 33, 34, 35, 43, 44, 45, 46, 47, 48, 49, 57, 58, 59, 60
 61, 62, 63, 71, 72, 73, 74, 75, 76, 77, 85, 86, 87, 88, 89, 90
 91,
*Elset, elset=__PickedSurf457_S3, internal, instance=B-21-6
  1,  2,  3,  4,  5,  6,  7, 15, 16, 17, 18, 19, 20, 21, 29, 30
 31, 32, 33, 34, 35, 43, 44, 45, 46, 47, 48, 49, 57, 58, 59, 60
 61, 62, 63, 71, 72, 73, 74, 75, 76, 77, 85, 86, 87, 88, 89, 90
 91,
*Elset, elset=__PickedSurf457_S3, internal, instance=B-21-2
  1,  2,  3,  4,  5,  6,  7, 15, 16, 17, 18, 19, 20, 21, 29, 30
 31, 32, 33, 34, 35, 43, 44, 45, 46, 47, 48, 49, 57, 58, 59, 60
 61, 62, 63, 71, 72, 73, 74, 75, 76, 77, 85, 86, 87, 88, 89, 90
 91,
*Elset, elset=__PickedSurf457_S3, internal, instance=B-21-7
  1,  2,  3,  4,  5,  6,  7, 15, 16, 17, 18, 19, 20, 21, 29, 30
 31, 32, 33, 34, 35, 43, 44, 45, 46, 47, 48, 49, 57, 58, 59, 60
 61, 62, 63, 71, 72, 73, 74, 75, 76, 77, 85, 86, 87, 88, 89, 90
 91,
*Elset, elset=__PickedSurf457_S3, internal, instance=B-21-4
  1,  2,  3,  4,  5,  6,  7, 15, 16, 17, 18, 19, 20, 21, 29, 30
 31, 32, 33, 34, 35, 43, 44, 45, 46, 47, 48, 49, 57, 58, 59, 60
 61, 62, 63, 71, 72, 73, 74, 75, 76, 77, 85, 86, 87, 88, 89, 90
 91,
*Surface, type=ELEMENT, name=_PickedSurf457, internal
__PickedSurf457_S3, S3
*Elset, elset=__PickedSurf458_S3, internal, instance=B-20-8
  1,  2,  3,  4,  5,  6,  7, 15, 16, 17, 18, 19, 20, 21, 29, 30
 31, 32, 33, 34, 35, 43, 44, 45, 46, 47, 48, 49, 57, 58, 59, 60
 61, 62, 63, 71, 72, 73, 74, 75, 76, 77, 85, 86, 87, 88, 89, 90
 91,
*Elset, elset=__PickedSurf458_S3, internal, instance=B-20-6
  1,  2,  3,  4,  5,  6,  7, 15, 16, 17, 18, 19, 20, 21, 29, 30
 31, 32, 33, 34, 35, 43, 44, 45, 46, 47, 48, 49, 57, 58, 59, 60
 61, 62, 63, 71, 72, 73, 74, 75, 76, 77, 85, 86, 87, 88, 89, 90
 91,
*Elset, elset=__PickedSurf458_S3, internal, instance=B-20-4
  1,  2,  3,  4,  5,  6,  7, 15, 16, 17, 18, 19, 20, 21, 29, 30
 31, 32, 33, 34, 35, 43, 44, 45, 46, 47, 48, 49, 57, 58, 59, 60
 61, 62, 63, 71, 72, 73, 74, 75, 76, 77, 85, 86, 87, 88, 89, 90
 91,
*Elset, elset=__PickedSurf458_S3, internal, instance=B-20-9
  1,  2,  3,  4,  5,  6,  7, 15, 16, 17, 18, 19, 20, 21, 29, 30
 31, 32, 33, 34, 35, 43, 44, 45, 46, 47, 48, 49, 57, 58, 59, 60
 61, 62, 63, 71, 72, 73, 74, 75, 76, 77, 85, 86, 87, 88, 89, 90
 91,
*Elset, elset=__PickedSurf458_S3, internal, instance=B-20-3
  1,  2,  3,  4,  5,  6,  7, 15, 16, 17, 18, 19, 20, 21, 29, 30
 31, 32, 33, 34, 35, 43, 44, 45, 46, 47, 48, 49, 57, 58, 59, 60
 61, 62, 63, 71, 72, 73, 74, 75, 76, 77, 85, 86, 87, 88, 89, 90
 91,
*Elset, elset=__PickedSurf458_S3, internal, instance=B-20-1
  1,  2,  3,  4,  5,  6,  7, 15, 16, 17, 18, 19, 20, 21, 29, 30
 31, 32, 33, 34, 35, 43, 44, 45, 46, 47, 48, 49, 57, 58, 59, 60
 61, 62, 63, 71, 72, 73, 74, 75, 76, 77, 85, 86, 87, 88, 89, 90
 91,
*Elset, elset=__PickedSurf458_S3, internal, instance=B-20-2
  1,  2,  3,  4,  5,  6,  7, 15, 16, 17, 18, 19, 20, 21, 29, 30
 31, 32, 33, 34, 35, 43, 44, 45, 46, 47, 48, 49, 57, 58, 59, 60
 61, 62, 63, 71, 72, 73, 74, 75, 76, 77, 85, 86, 87, 88, 89, 90
 91,
*Elset, elset=__PickedSurf458_S3, internal, instance=B-20-5
  1,  2,  3,  4,  5,  6,  7, 15, 16, 17, 18, 19, 20, 21, 29, 30
 31, 32, 33, 34, 35, 43, 44, 45, 46, 47, 48, 49, 57, 58, 59, 60
 61, 62, 63, 71, 72, 73, 74, 75, 76, 77, 85, 86, 87, 88, 89, 90
 91,
*Elset, elset=__PickedSurf458_S3, internal, instance=B-20-7
  1,  2,  3,  4,  5,  6,  7, 15, 16, 17, 18, 19, 20, 21, 29, 30
 31, 32, 33, 34, 35, 43, 44, 45, 46, 47, 48, 49, 57, 58, 59, 60
 61, 62, 63, 71, 72, 73, 74, 75, 76, 77, 85, 86, 87, 88, 89, 90
 91,
*Surface, type=ELEMENT, name=_PickedSurf458, internal
__PickedSurf458_S3, S3
*Elset, elset=__PickedSurf459_S3, internal, instance=B-19-10
  1,  2,  3,  4,  5,  6,  7, 15, 16, 17, 18, 19, 20, 21, 29, 30
 31, 32, 33, 34, 35, 43, 44, 45, 46, 47, 48, 49
*Elset, elset=__PickedSurf459_S3, internal, instance=B-19-9
  1,  2,  3,  4,  5,  6,  7, 15, 16, 17, 18, 19, 20, 21, 29, 30
 31, 32, 33, 34, 35, 43, 44, 45, 46, 47, 48, 49, 57, 58, 59, 60
 61, 62, 63, 71, 72, 73, 74, 75, 76, 77, 85, 86, 87, 88, 89, 90
 91,
*Elset, elset=__PickedSurf459_S3, internal, instance=B-19-8
  1,  2,  3,  4,  5,  6,  7, 15, 16, 17, 18, 19, 20, 21, 29, 30
 31, 32, 33, 34, 35, 43, 44, 45, 46, 47, 48, 49, 57, 58, 59, 60
 61, 62, 63, 71, 72, 73, 74, 75, 76, 77, 85, 86, 87, 88, 89, 90
 91,
*Elset, elset=__PickedSurf459_S3, internal, instance=B-19-6
  1,  2,  3,  4,  5,  6,  7, 15, 16, 17, 18, 19, 20, 21, 29, 30
 31, 32, 33, 34, 35, 43, 44, 45, 46, 47, 48, 49, 57, 58, 59, 60
 61, 62, 63, 71, 72, 73, 74, 75, 76, 77, 85, 86, 87, 88, 89, 90
 91,
*Elset, elset=__PickedSurf459_S3, internal, instance=B-19-2
  1,  2,  3,  4,  5,  6,  7, 15, 16, 17, 18, 19, 20, 21, 29, 30
 31, 32, 33, 34, 35, 43, 44, 45, 46, 47, 48, 49, 57, 58, 59, 60
 61, 62, 63, 71, 72, 73, 74, 75, 76, 77, 85, 86, 87, 88, 89, 90
 91,
*Elset, elset=__PickedSurf459_S3, internal, instance=B-19-7
  1,  2,  3,  4,  5,  6,  7, 15, 16, 17, 18, 19, 20, 21, 29, 30
 31, 32, 33, 34, 35, 43, 44, 45, 46, 47, 48, 49, 57, 58, 59, 60
 61, 62, 63, 71, 72, 73, 74, 75, 76, 77, 85, 86, 87, 88, 89, 90
 91,
*Elset, elset=__PickedSurf459_S3, internal, instance=B-19-4
  1,  2,  3,  4,  5,  6,  7, 15, 16, 17, 18, 19, 20, 21, 29, 30
 31, 32, 33, 34, 35, 43, 44, 45, 46, 47, 48, 49, 57, 58, 59, 60
 61, 62, 63, 71, 72, 73, 74, 75, 76, 77, 85, 86, 87, 88, 89, 90
 91,
*Elset, elset=__PickedSurf459_S3, internal, instance=B-19-1
  1,  2,  3,  4,  5,  6,  7, 15, 16, 17, 18, 19, 20, 21, 29, 30
 31, 32, 33, 34, 35, 43, 44, 45, 46, 47, 48, 49
*Elset, elset=__PickedSurf459_S3, internal, instance=B-19-3
  1,  2,  3,  4,  5,  6,  7, 15, 16, 17, 18, 19, 20, 21, 29, 30
 31, 32, 33, 34, 35, 43, 44, 45, 46, 47, 48, 49, 57, 58, 59, 60
 61, 62, 63, 71, 72, 73, 74, 75, 76, 77, 85, 86, 87, 88, 89, 90
 91,
*Elset, elset=__PickedSurf459_S3, internal, instance=B-19-5
  1,  2,  3,  4,  5,  6,  7, 15, 16, 17, 18, 19, 20, 21, 29, 30
 31, 32, 33, 34, 35, 43, 44, 45, 46, 47, 48, 49, 57, 58, 59, 60
 61, 62, 63, 71, 72, 73, 74, 75, 76, 77, 85, 86, 87, 88, 89, 90
 91,
*Surface, type=ELEMENT, name=_PickedSurf459, internal
__PickedSurf459_S3, S3
*Elset, elset=__PickedSurf460_S3, internal, instance=B-18-8
  1,  2,  3,  4,  5,  6,  7, 15, 16, 17, 18, 19, 20, 21, 29, 30
 31, 32, 33, 34, 35, 43, 44, 45, 46, 47, 48, 49, 57, 58, 59, 60
 61, 62, 63, 71, 72, 73, 74, 75, 76, 77, 85, 86, 87, 88, 89, 90
 91,
*Elset, elset=__PickedSurf460_S3, internal, instance=B-18-6
  1,  2,  3,  4,  5,  6,  7, 15, 16, 17, 18, 19, 20, 21, 29, 30
 31, 32, 33, 34, 35, 43, 44, 45, 46, 47, 48, 49, 57, 58, 59, 60
 61, 62, 63, 71, 72, 73, 74, 75, 76, 77, 85, 86, 87, 88, 89, 90
 91,
*Elset, elset=__PickedSurf460_S3, internal, instance=B-18-4
  1,  2,  3,  4,  5,  6,  7, 15, 16, 17, 18, 19, 20, 21, 29, 30
 31, 32, 33, 34, 35, 43, 44, 45, 46, 47, 48, 49, 57, 58, 59, 60
 61, 62, 63, 71, 72, 73, 74, 75, 76, 77, 85, 86, 87, 88, 89, 90
 91,
*Elset, elset=__PickedSurf460_S3, internal, instance=B-18-9
  1,  2,  3,  4,  5,  6,  7, 15, 16, 17, 18, 19, 20, 21, 29, 30
 31, 32, 33, 34, 35, 43, 44, 45, 46, 47, 48, 49, 57, 58, 59, 60
 61, 62, 63, 71, 72, 73, 74, 75, 76, 77, 85, 86, 87, 88, 89, 90
 91,
*Elset, elset=__PickedSurf460_S3, internal, instance=B-18-3
  1,  2,  3,  4,  5,  6,  7, 15, 16, 17, 18, 19, 20, 21, 29, 30
 31, 32, 33, 34, 35, 43, 44, 45, 46, 47, 48, 49, 57, 58, 59, 60
 61, 62, 63, 71, 72, 73, 74, 75, 76, 77, 85, 86, 87, 88, 89, 90
 91,
*Elset, elset=__PickedSurf460_S3, internal, instance=B-18-1
  1,  2,  3,  4,  5,  6,  7, 15, 16, 17, 18, 19, 20, 21, 29, 30
 31, 32, 33, 34, 35, 43, 44, 45, 46, 47, 48, 49, 57, 58, 59, 60
 61, 62, 63, 71, 72, 73, 74, 75, 76, 77, 85, 86, 87, 88, 89, 90
 91,
*Elset, elset=__PickedSurf460_S3, internal, instance=B-18-2
  1,  2,  3,  4,  5,  6,  7, 15, 16, 17, 18, 19, 20, 21, 29, 30
 31, 32, 33, 34, 35, 43, 44, 45, 46, 47, 48, 49, 57, 58, 59, 60
 61, 62, 63, 71, 72, 73, 74, 75, 76, 77, 85, 86, 87, 88, 89, 90
 91,
*Elset, elset=__PickedSurf460_S3, internal, instance=B-18-5
  1,  2,  3,  4,  5,  6,  7, 15, 16, 17, 18, 19, 20, 21, 29, 30
 31, 32, 33, 34, 35, 43, 44, 45, 46, 47, 48, 49, 57, 58, 59, 60
 61, 62, 63, 71, 72, 73, 74, 75, 76, 77, 85, 86, 87, 88, 89, 90
 91,
*Elset, elset=__PickedSurf460_S3, internal, instance=B-18-7
  1,  2,  3,  4,  5,  6,  7, 15, 16, 17, 18, 19, 20, 21, 29, 30
 31, 32, 33, 34, 35, 43, 44, 45, 46, 47, 48, 49, 57, 58, 59, 60
 61, 62, 63, 71, 72, 73, 74, 75, 76, 77, 85, 86, 87, 88, 89, 90
 91,
*Surface, type=ELEMENT, name=_PickedSurf460, internal
__PickedSurf460_S3, S3
*Elset, elset=__PickedSurf461_S3, internal, instance=B-17-10
  1,  2,  3,  4,  5,  6,  7, 15, 16, 17, 18, 19, 20, 21, 29, 30
 31, 32, 33, 34, 35, 43, 44, 45, 46, 47, 48, 49
*Elset, elset=__PickedSurf461_S3, internal, instance=B-17-9
  1,  2,  3,  4,  5,  6,  7, 15, 16, 17, 18, 19, 20, 21, 29, 30
 31, 32, 33, 34, 35, 43, 44, 45, 46, 47, 48, 49, 57, 58, 59, 60
 61, 62, 63, 71, 72, 73, 74, 75, 76, 77, 85, 86, 87, 88, 89, 90
 91,
*Elset, elset=__PickedSurf461_S3, internal, instance=B-17-8
  1,  2,  3,  4,  5,  6,  7, 15, 16, 17, 18, 19, 20, 21, 29, 30
 31, 32, 33, 34, 35, 43, 44, 45, 46, 47, 48, 49, 57, 58, 59, 60
 61, 62, 63, 71, 72, 73, 74, 75, 76, 77, 85, 86, 87, 88, 89, 90
 91,
*Elset, elset=__PickedSurf461_S3, internal, instance=B-17-6
  1,  2,  3,  4,  5,  6,  7, 15, 16, 17, 18, 19, 20, 21, 29, 30
 31, 32, 33, 34, 35, 43, 44, 45, 46, 47, 48, 49, 57, 58, 59, 60
 61, 62, 63, 71, 72, 73, 74, 75, 76, 77, 85, 86, 87, 88, 89, 90
 91,
*Elset, elset=__PickedSurf461_S3, internal, instance=B-17-2
  1,  2,  3,  4,  5,  6,  7, 15, 16, 17, 18, 19, 20, 21, 29, 30
 31, 32, 33, 34, 35, 43, 44, 45, 46, 47, 48, 49, 57, 58, 59, 60
 61, 62, 63, 71, 72, 73, 74, 75, 76, 77, 85, 86, 87, 88, 89, 90
 91,
*Elset, elset=__PickedSurf461_S3, internal, instance=B-17-7
  1,  2,  3,  4,  5,  6,  7, 15, 16, 17, 18, 19, 20, 21, 29, 30
 31, 32, 33, 34, 35, 43, 44, 45, 46, 47, 48, 49, 57, 58, 59, 60
 61, 62, 63, 71, 72, 73, 74, 75, 76, 77, 85, 86, 87, 88, 89, 90
 91,
*Elset, elset=__PickedSurf461_S3, internal, instance=B-17-4
  1,  2,  3,  4,  5,  6,  7, 15, 16, 17, 18, 19, 20, 21, 29, 30
 31, 32, 33, 34, 35, 43, 44, 45, 46, 47, 48, 49, 57, 58, 59, 60
 61, 62, 63, 71, 72, 73, 74, 75, 76, 77, 85, 86, 87, 88, 89, 90
 91,
*Elset, elset=__PickedSurf461_S3, internal, instance=B-17-1
  1,  2,  3,  4,  5,  6,  7, 15, 16, 17, 18, 19, 20, 21, 29, 30
 31, 32, 33, 34, 35, 43, 44, 45, 46, 47, 48, 49
*Elset, elset=__PickedSurf461_S3, internal, instance=B-17-3
  1,  2,  3,  4,  5,  6,  7, 15, 16, 17, 18, 19, 20, 21, 29, 30
 31, 32, 33, 34, 35, 43, 44, 45, 46, 47, 48, 49, 57, 58, 59, 60
 61, 62, 63, 71, 72, 73, 74, 75, 76, 77, 85, 86, 87, 88, 89, 90
 91,
*Elset, elset=__PickedSurf461_S3, internal, instance=B-17-5
  1,  2,  3,  4,  5,  6,  7, 15, 16, 17, 18, 19, 20, 21, 29, 30
 31, 32, 33, 34, 35, 43, 44, 45, 46, 47, 48, 49, 57, 58, 59, 60
 61, 62, 63, 71, 72, 73, 74, 75, 76, 77, 85, 86, 87, 88, 89, 90
 91,
*Surface, type=ELEMENT, name=_PickedSurf461, internal
__PickedSurf461_S3, S3
*Elset, elset=__PickedSurf462_S3, internal, instance=B-16-8
  1,  2,  3,  4,  5,  6,  7, 15, 16, 17, 18, 19, 20, 21, 29, 30
 31, 32, 33, 34, 35, 43, 44, 45, 46, 47, 48, 49, 57, 58, 59, 60
 61, 62, 63, 71, 72, 73, 74, 75, 76, 77, 85, 86, 87, 88, 89, 90
 91,
*Elset, elset=__PickedSurf462_S3, internal, instance=B-16-6
  1,  2,  3,  4,  5,  6,  7, 15, 16, 17, 18, 19, 20, 21, 29, 30
 31, 32, 33, 34, 35, 43, 44, 45, 46, 47, 48, 49, 57, 58, 59, 60
 61, 62, 63, 71, 72, 73, 74, 75, 76, 77, 85, 86, 87, 88, 89, 90
 91,
*Elset, elset=__PickedSurf462_S3, internal, instance=B-16-4
  1,  2,  3,  4,  5,  6,  7, 15, 16, 17, 18, 19, 20, 21, 29, 30
 31, 32, 33, 34, 35, 43, 44, 45, 46, 47, 48, 49, 57, 58, 59, 60
 61, 62, 63, 71, 72, 73, 74, 75, 76, 77, 85, 86, 87, 88, 89, 90
 91,
*Elset, elset=__PickedSurf462_S3, internal, instance=B-16-2
  1,  2,  3,  4,  5,  6,  7, 15, 16, 17, 18, 19, 20, 21, 29, 30
 31, 32, 33, 34, 35, 43, 44, 45, 46, 47, 48, 49, 57, 58, 59, 60
 61, 62, 63, 71, 72, 73, 74, 75, 76, 77, 85, 86, 87, 88, 89, 90
 91,
*Elset, elset=__PickedSurf462_S3, internal, instance=B-16-5
  1,  2,  3,  4,  5,  6,  7, 15, 16, 17, 18, 19, 20, 21, 29, 30
 31, 32, 33, 34, 35, 43, 44, 45, 46, 47, 48, 49, 57, 58, 59, 60
 61, 62, 63, 71, 72, 73, 74, 75, 76, 77, 85, 86, 87, 88, 89, 90
 91,
*Elset, elset=__PickedSurf462_S3, internal, instance=B-16-7
  1,  2,  3,  4,  5,  6,  7, 15, 16, 17, 18, 19, 20, 21, 29, 30
 31, 32, 33, 34, 35, 43, 44, 45, 46, 47, 48, 49, 57, 58, 59, 60
 61, 62, 63, 71, 72, 73, 74, 75, 76, 77, 85, 86, 87, 88, 89, 90
 91,
*Elset, elset=__PickedSurf462_S3, internal, instance=B-16-9
  1,  2,  3,  4,  5,  6,  7, 15, 16, 17, 18, 19, 20, 21, 29, 30
 31, 32, 33, 34, 35, 43, 44, 45, 46, 47, 48, 49, 57, 58, 59, 60
 61, 62, 63, 71, 72, 73, 74, 75, 76, 77, 85, 86, 87, 88, 89, 90
 91,
*Elset, elset=__PickedSurf462_S3, internal, instance=B-16-1
  1,  2,  3,  4,  5,  6,  7, 15, 16, 17, 18, 19, 20, 21, 29, 30
 31, 32, 33, 34, 35, 43, 44, 45, 46, 47, 48, 49, 57, 58, 59, 60
 61, 62, 63, 71, 72, 73, 74, 75, 76, 77, 85, 86, 87, 88, 89, 90
 91,
*Elset, elset=__PickedSurf462_S3, internal, instance=B-16-3
  1,  2,  3,  4,  5,  6,  7, 15, 16, 17, 18, 19, 20, 21, 29, 30
 31, 32, 33, 34, 35, 43, 44, 45, 46, 47, 48, 49, 57, 58, 59, 60
 61, 62, 63, 71, 72, 73, 74, 75, 76, 77, 85, 86, 87, 88, 89, 90
 91,
*Surface, type=ELEMENT, name=_PickedSurf462, internal
__PickedSurf462_S3, S3
*Elset, elset=__PickedSurf463_S3, internal, instance=B-15-10
  1,  2,  3,  4,  5,  6,  7, 15, 16, 17, 18, 19, 20, 21, 29, 30
 31, 32, 33, 34, 35, 43, 44, 45, 46, 47, 48, 49
*Elset, elset=__PickedSurf463_S3, internal, instance=B-15-9
  1,  2,  3,  4,  5,  6,  7, 15, 16, 17, 18, 19, 20, 21, 29, 30
 31, 32, 33, 34, 35, 43, 44, 45, 46, 47, 48, 49, 57, 58, 59, 60
 61, 62, 63, 71, 72, 73, 74, 75, 76, 77, 85, 86, 87, 88, 89, 90
 91,
*Elset, elset=__PickedSurf463_S3, internal, instance=B-15-8
  1,  2,  3,  4,  5,  6,  7, 15, 16, 17, 18, 19, 20, 21, 29, 30
 31, 32, 33, 34, 35, 43, 44, 45, 46, 47, 48, 49, 57, 58, 59, 60
 61, 62, 63, 71, 72, 73, 74, 75, 76, 77, 85, 86, 87, 88, 89, 90
 91,
*Elset, elset=__PickedSurf463_S3, internal, instance=B-15-1
  1,  2,  3,  4,  5,  6,  7, 15, 16, 17, 18, 19, 20, 21, 29, 30
 31, 32, 33, 34, 35, 43, 44, 45, 46, 47, 48, 49
*Elset, elset=__PickedSurf463_S3, internal, instance=B-15-3
  1,  2,  3,  4,  5,  6,  7, 15, 16, 17, 18, 19, 20, 21, 29, 30
 31, 32, 33, 34, 35, 43, 44, 45, 46, 47, 48, 49, 57, 58, 59, 60
 61, 62, 63, 71, 72, 73, 74, 75, 76, 77, 85, 86, 87, 88, 89, 90
 91,
*Elset, elset=__PickedSurf463_S3, internal, instance=B-15-5
  1,  2,  3,  4,  5,  6,  7, 15, 16, 17, 18, 19, 20, 21, 29, 30
 31, 32, 33, 34, 35, 43, 44, 45, 46, 47, 48, 49, 57, 58, 59, 60
 61, 62, 63, 71, 72, 73, 74, 75, 76, 77, 85, 86, 87, 88, 89, 90
 91,
*Elset, elset=__PickedSurf463_S3, internal, instance=B-15-6
  1,  2,  3,  4,  5,  6,  7, 15, 16, 17, 18, 19, 20, 21, 29, 30
 31, 32, 33, 34, 35, 43, 44, 45, 46, 47, 48, 49, 57, 58, 59, 60
 61, 62, 63, 71, 72, 73, 74, 75, 76, 77, 85, 86, 87, 88, 89, 90
 91,
*Elset, elset=__PickedSurf463_S3, internal, instance=B-15-4
  1,  2,  3,  4,  5,  6,  7, 15, 16, 17, 18, 19, 20, 21, 29, 30
 31, 32, 33, 34, 35, 43, 44, 45, 46, 47, 48, 49, 57, 58, 59, 60
 61, 62, 63, 71, 72, 73, 74, 75, 76, 77, 85, 86, 87, 88, 89, 90
 91,
*Elset, elset=__PickedSurf463_S3, internal, instance=B-15-2
  1,  2,  3,  4,  5,  6,  7, 15, 16, 17, 18, 19, 20, 21, 29, 30
 31, 32, 33, 34, 35, 43, 44, 45, 46, 47, 48, 49, 57, 58, 59, 60
 61, 62, 63, 71, 72, 73, 74, 75, 76, 77, 85, 86, 87, 88, 89, 90
 91,
*Elset, elset=__PickedSurf463_S3, internal, instance=B-15-7
  1,  2,  3,  4,  5,  6,  7, 15, 16, 17, 18, 19, 20, 21, 29, 30
 31, 32, 33, 34, 35, 43, 44, 45, 46, 47, 48, 49, 57, 58, 59, 60
 61, 62, 63, 71, 72, 73, 74, 75, 76, 77, 85, 86, 87, 88, 89, 90
 91,
*Surface, type=ELEMENT, name=_PickedSurf463, internal
__PickedSurf463_S3, S3
*Elset, elset=__PickedSurf464_S3, internal, instance=B-14-8
  1,  2,  3,  4,  5,  6,  7, 15, 16, 17, 18, 19, 20, 21, 29, 30
 31, 32, 33, 34, 35, 43, 44, 45, 46, 47, 48, 49, 57, 58, 59, 60
 61, 62, 63, 71, 72, 73, 74, 75, 76, 77, 85, 86, 87, 88, 89, 90
 91,
*Elset, elset=__PickedSurf464_S3, internal, instance=B-14-6
  1,  2,  3,  4,  5,  6,  7, 15, 16, 17, 18, 19, 20, 21, 29, 30
 31, 32, 33, 34, 35, 43, 44, 45, 46, 47, 48, 49, 57, 58, 59, 60
 61, 62, 63, 71, 72, 73, 74, 75, 76, 77, 85, 86, 87, 88, 89, 90
 91,
*Elset, elset=__PickedSurf464_S3, internal, instance=B-14-4
  1,  2,  3,  4,  5,  6,  7, 15, 16, 17, 18, 19, 20, 21, 29, 30
 31, 32, 33, 34, 35, 43, 44, 45, 46, 47, 48, 49, 57, 58, 59, 60
 61, 62, 63, 71, 72, 73, 74, 75, 76, 77, 85, 86, 87, 88, 89, 90
 91,
*Elset, elset=__PickedSurf464_S3, internal, instance=B-14-2
  1,  2,  3,  4,  5,  6,  7, 15, 16, 17, 18, 19, 20, 21, 29, 30
 31, 32, 33, 34, 35, 43, 44, 45, 46, 47, 48, 49, 57, 58, 59, 60
 61, 62, 63, 71, 72, 73, 74, 75, 76, 77, 85, 86, 87, 88, 89, 90
 91,
*Elset, elset=__PickedSurf464_S3, internal, instance=B-14-5
  1,  2,  3,  4,  5,  6,  7, 15, 16, 17, 18, 19, 20, 21, 29, 30
 31, 32, 33, 34, 35, 43, 44, 45, 46, 47, 48, 49, 57, 58, 59, 60
 61, 62, 63, 71, 72, 73, 74, 75, 76, 77, 85, 86, 87, 88, 89, 90
 91,
*Elset, elset=__PickedSurf464_S3, internal, instance=B-14-7
  1,  2,  3,  4,  5,  6,  7, 15, 16, 17, 18, 19, 20, 21, 29, 30
 31, 32, 33, 34, 35, 43, 44, 45, 46, 47, 48, 49, 57, 58, 59, 60
 61, 62, 63, 71, 72, 73, 74, 75, 76, 77, 85, 86, 87, 88, 89, 90
 91,
*Elset, elset=__PickedSurf464_S3, internal, instance=B-14-9
  1,  2,  3,  4,  5,  6,  7, 15, 16, 17, 18, 19, 20, 21, 29, 30
 31, 32, 33, 34, 35, 43, 44, 45, 46, 47, 48, 49, 57, 58, 59, 60
 61, 62, 63, 71, 72, 73, 74, 75, 76, 77, 85, 86, 87, 88, 89, 90
 91,
*Elset, elset=__PickedSurf464_S3, internal, instance=B-14-1
  1,  2,  3,  4,  5,  6,  7, 15, 16, 17, 18, 19, 20, 21, 29, 30
 31, 32, 33, 34, 35, 43, 44, 45, 46, 47, 48, 49, 57, 58, 59, 60
 61, 62, 63, 71, 72, 73, 74, 75, 76, 77, 85, 86, 87, 88, 89, 90
 91,
*Elset, elset=__PickedSurf464_S3, internal, instance=B-14-3
  1,  2,  3,  4,  5,  6,  7, 15, 16, 17, 18, 19, 20, 21, 29, 30
 31, 32, 33, 34, 35, 43, 44, 45, 46, 47, 48, 49, 57, 58, 59, 60
 61, 62, 63, 71, 72, 73, 74, 75, 76, 77, 85, 86, 87, 88, 89, 90
 91,
*Surface, type=ELEMENT, name=_PickedSurf464, internal
__PickedSurf464_S3, S3
*Elset, elset=__PickedSurf465_S3, internal, instance=B-13-10
  1,  2,  3,  4,  5,  6,  7, 15, 16, 17, 18, 19, 20, 21, 29, 30
 31, 32, 33, 34, 35, 43, 44, 45, 46, 47, 48, 49
*Elset, elset=__PickedSurf465_S3, internal, instance=B-13-9
  1,  2,  3,  4,  5,  6,  7, 15, 16, 17, 18, 19, 20, 21, 29, 30
 31, 32, 33, 34, 35, 43, 44, 45, 46, 47, 48, 49, 57, 58, 59, 60
 61, 62, 63, 71, 72, 73, 74, 75, 76, 77, 85, 86, 87, 88, 89, 90
 91,
*Elset, elset=__PickedSurf465_S3, internal, instance=B-13-8
  1,  2,  3,  4,  5,  6,  7, 15, 16, 17, 18, 19, 20, 21, 29, 30
 31, 32, 33, 34, 35, 43, 44, 45, 46, 47, 48, 49, 57, 58, 59, 60
 61, 62, 63, 71, 72, 73, 74, 75, 76, 77, 85, 86, 87, 88, 89, 90
 91,
*Elset, elset=__PickedSurf465_S3, internal, instance=B-13-1
  1,  2,  3,  4,  5,  6,  7, 15, 16, 17, 18, 19, 20, 21, 29, 30
 31, 32, 33, 34, 35, 43, 44, 45, 46, 47, 48, 49
*Elset, elset=__PickedSurf465_S3, internal, instance=B-13-3
  1,  2,  3,  4,  5,  6,  7, 15, 16, 17, 18, 19, 20, 21, 29, 30
 31, 32, 33, 34, 35, 43, 44, 45, 46, 47, 48, 49, 57, 58, 59, 60
 61, 62, 63, 71, 72, 73, 74, 75, 76, 77, 85, 86, 87, 88, 89, 90
 91,
*Elset, elset=__PickedSurf465_S3, internal, instance=B-13-5
  1,  2,  3,  4,  5,  6,  7, 15, 16, 17, 18, 19, 20, 21, 29, 30
 31, 32, 33, 34, 35, 43, 44, 45, 46, 47, 48, 49, 57, 58, 59, 60
 61, 62, 63, 71, 72, 73, 74, 75, 76, 77, 85, 86, 87, 88, 89, 90
 91,
*Elset, elset=__PickedSurf465_S3, internal, instance=B-13-6
  1,  2,  3,  4,  5,  6,  7, 15, 16, 17, 18, 19, 20, 21, 29, 30
 31, 32, 33, 34, 35, 43, 44, 45, 46, 47, 48, 49, 57, 58, 59, 60
 61, 62, 63, 71, 72, 73, 74, 75, 76, 77, 85, 86, 87, 88, 89, 90
 91,
*Elset, elset=__PickedSurf465_S3, internal, instance=B-13-4
  1,  2,  3,  4,  5,  6,  7, 15, 16, 17, 18, 19, 20, 21, 29, 30
 31, 32, 33, 34, 35, 43, 44, 45, 46, 47, 48, 49, 57, 58, 59, 60
 61, 62, 63, 71, 72, 73, 74, 75, 76, 77, 85, 86, 87, 88, 89, 90
 91,
*Elset, elset=__PickedSurf465_S3, internal, instance=B-13-2
  1,  2,  3,  4,  5,  6,  7, 15, 16, 17, 18, 19, 20, 21, 29, 30
 31, 32, 33, 34, 35, 43, 44, 45, 46, 47, 48, 49, 57, 58, 59, 60
 61, 62, 63, 71, 72, 73, 74, 75, 76, 77, 85, 86, 87, 88, 89, 90
 91,
*Elset, elset=__PickedSurf465_S3, internal, instance=B-13-7
  1,  2,  3,  4,  5,  6,  7, 15, 16, 17, 18, 19, 20, 21, 29, 30
 31, 32, 33, 34, 35, 43, 44, 45, 46, 47, 48, 49, 57, 58, 59, 60
 61, 62, 63, 71, 72, 73, 74, 75, 76, 77, 85, 86, 87, 88, 89, 90
 91,
*Surface, type=ELEMENT, name=_PickedSurf465, internal
__PickedSurf465_S3, S3
*Elset, elset=__PickedSurf466_S3, internal, instance=B-12-8
  1,  2,  3,  4,  5,  6,  7, 15, 16, 17, 18, 19, 20, 21, 29, 30
 31, 32, 33, 34, 35, 43, 44, 45, 46, 47, 48, 49, 57, 58, 59, 60
 61, 62, 63, 71, 72, 73, 74, 75, 76, 77, 85, 86, 87, 88, 89, 90
 91,
*Elset, elset=__PickedSurf466_S3, internal, instance=B-12-6
  1,  2,  3,  4,  5,  6,  7, 15, 16, 17, 18, 19, 20, 21, 29, 30
 31, 32, 33, 34, 35, 43, 44, 45, 46, 47, 48, 49, 57, 58, 59, 60
 61, 62, 63, 71, 72, 73, 74, 75, 76, 77, 85, 86, 87, 88, 89, 90
 91,
*Elset, elset=__PickedSurf466_S3, internal, instance=B-12-4
  1,  2,  3,  4,  5,  6,  7, 15, 16, 17, 18, 19, 20, 21, 29, 30
 31, 32, 33, 34, 35, 43, 44, 45, 46, 47, 48, 49, 57, 58, 59, 60
 61, 62, 63, 71, 72, 73, 74, 75, 76, 77, 85, 86, 87, 88, 89, 90
 91,
*Elset, elset=__PickedSurf466_S3, internal, instance=B-12-9
  1,  2,  3,  4,  5,  6,  7, 15, 16, 17, 18, 19, 20, 21, 29, 30
 31, 32, 33, 34, 35, 43, 44, 45, 46, 47, 48, 49, 57, 58, 59, 60
 61, 62, 63, 71, 72, 73, 74, 75, 76, 77, 85, 86, 87, 88, 89, 90
 91,
*Elset, elset=__PickedSurf466_S3, internal, instance=B-12-1
  1,  2,  3,  4,  5,  6,  7, 15, 16, 17, 18, 19, 20, 21, 29, 30
 31, 32, 33, 34, 35, 43, 44, 45, 46, 47, 48, 49, 57, 58, 59, 60
 61, 62, 63, 71, 72, 73, 74, 75, 76, 77, 85, 86, 87, 88, 89, 90
 91,
*Elset, elset=__PickedSurf466_S3, internal, instance=B-12-3
  1,  2,  3,  4,  5,  6,  7, 15, 16, 17, 18, 19, 20, 21, 29, 30
 31, 32, 33, 34, 35, 43, 44, 45, 46, 47, 48, 49, 57, 58, 59, 60
 61, 62, 63, 71, 72, 73, 74, 75, 76, 77, 85, 86, 87, 88, 89, 90
 91,
*Elset, elset=__PickedSurf466_S3, internal, instance=B-12-2
  1,  2,  3,  4,  5,  6,  7, 15, 16, 17, 18, 19, 20, 21, 29, 30
 31, 32, 33, 34, 35, 43, 44, 45, 46, 47, 48, 49, 57, 58, 59, 60
 61, 62, 63, 71, 72, 73, 74, 75, 76, 77, 85, 86, 87, 88, 89, 90
 91,
*Elset, elset=__PickedSurf466_S3, internal, instance=B-12-7
  1,  2,  3,  4,  5,  6,  7, 15, 16, 17, 18, 19, 20, 21, 29, 30
 31, 32, 33, 34, 35, 43, 44, 45, 46, 47, 48, 49, 57, 58, 59, 60
 61, 62, 63, 71, 72, 73, 74, 75, 76, 77, 85, 86, 87, 88, 89, 90
 91,
*Elset, elset=__PickedSurf466_S3, internal, instance=B-12-5
  1,  2,  3,  4,  5,  6,  7, 15, 16, 17, 18, 19, 20, 21, 29, 30
 31, 32, 33, 34, 35, 43, 44, 45, 46, 47, 48, 49, 57, 58, 59, 60
 61, 62, 63, 71, 72, 73, 74, 75, 76, 77, 85, 86, 87, 88, 89, 90
 91,
*Surface, type=ELEMENT, name=_PickedSurf466, internal
__PickedSurf466_S3, S3
*Elset, elset=__PickedSurf467_S3, internal, instance=B-11-10
  1,  2,  3,  4,  5,  6,  7, 15, 16, 17, 18, 19, 20, 21, 29, 30
 31, 32, 33, 34, 35, 43, 44, 45, 46, 47, 48, 49
*Elset, elset=__PickedSurf467_S3, internal, instance=B-11-9
  1,  2,  3,  4,  5,  6,  7, 15, 16, 17, 18, 19, 20, 21, 29, 30
 31, 32, 33, 34, 35, 43, 44, 45, 46, 47, 48, 49, 57, 58, 59, 60
 61, 62, 63, 71, 72, 73, 74, 75, 76, 77, 85, 86, 87, 88, 89, 90
 91,
*Elset, elset=__PickedSurf467_S3, internal, instance=B-11-8
  1,  2,  3,  4,  5,  6,  7, 15, 16, 17, 18, 19, 20, 21, 29, 30
 31, 32, 33, 34, 35, 43, 44, 45, 46, 47, 48, 49, 57, 58, 59, 60
 61, 62, 63, 71, 72, 73, 74, 75, 76, 77, 85, 86, 87, 88, 89, 90
 91,
*Elset, elset=__PickedSurf467_S3, internal, instance=B-11-6
  1,  2,  3,  4,  5,  6,  7, 15, 16, 17, 18, 19, 20, 21, 29, 30
 31, 32, 33, 34, 35, 43, 44, 45, 46, 47, 48, 49, 57, 58, 59, 60
 61, 62, 63, 71, 72, 73, 74, 75, 76, 77, 85, 86, 87, 88, 89, 90
 91,
*Elset, elset=__PickedSurf467_S3, internal, instance=B-11-4
  1,  2,  3,  4,  5,  6,  7, 15, 16, 17, 18, 19, 20, 21, 29, 30
 31, 32, 33, 34, 35, 43, 44, 45, 46, 47, 48, 49, 57, 58, 59, 60
 61, 62, 63, 71, 72, 73, 74, 75, 76, 77, 85, 86, 87, 88, 89, 90
 91,
*Elset, elset=__PickedSurf467_S3, internal, instance=B-11-2
  1,  2,  3,  4,  5,  6,  7, 15, 16, 17, 18, 19, 20, 21, 29, 30
 31, 32, 33, 34, 35, 43, 44, 45, 46, 47, 48, 49, 57, 58, 59, 60
 61, 62, 63, 71, 72, 73, 74, 75, 76, 77, 85, 86, 87, 88, 89, 90
 91,
*Elset, elset=__PickedSurf467_S3, internal, instance=B-11-7
  1,  2,  3,  4,  5,  6,  7, 15, 16, 17, 18, 19, 20, 21, 29, 30
 31, 32, 33, 34, 35, 43, 44, 45, 46, 47, 48, 49, 57, 58, 59, 60
 61, 62, 63, 71, 72, 73, 74, 75, 76, 77, 85, 86, 87, 88, 89, 90
 91,
*Elset, elset=__PickedSurf467_S3, internal, instance=B-11-1
  1,  2,  3,  4,  5,  6,  7, 15, 16, 17, 18, 19, 20, 21, 29, 30
 31, 32, 33, 34, 35, 43, 44, 45, 46, 47, 48, 49
*Elset, elset=__PickedSurf467_S3, internal, instance=B-11-5
  1,  2,  3,  4,  5,  6,  7, 15, 16, 17, 18, 19, 20, 21, 29, 30
 31, 32, 33, 34, 35, 43, 44, 45, 46, 47, 48, 49, 57, 58, 59, 60
 61, 62, 63, 71, 72, 73, 74, 75, 76, 77, 85, 86, 87, 88, 89, 90
 91,
*Elset, elset=__PickedSurf467_S3, internal, instance=B-11-3
  1,  2,  3,  4,  5,  6,  7, 15, 16, 17, 18, 19, 20, 21, 29, 30
 31, 32, 33, 34, 35, 43, 44, 45, 46, 47, 48, 49, 57, 58, 59, 60
 61, 62, 63, 71, 72, 73, 74, 75, 76, 77, 85, 86, 87, 88, 89, 90
 91,
*Surface, type=ELEMENT, name=_PickedSurf467, internal
__PickedSurf467_S3, S3
*Elset, elset=__PickedSurf468_S3, internal, instance=B-10-8
  1,  2,  3,  4,  5,  6,  7, 15, 16, 17, 18, 19, 20, 21, 29, 30
 31, 32, 33, 34, 35, 43, 44, 45, 46, 47, 48, 49, 57, 58, 59, 60
 61, 62, 63, 71, 72, 73, 74, 75, 76, 77, 85, 86, 87, 88, 89, 90
 91,
*Elset, elset=__PickedSurf468_S3, internal, instance=B-10-6
  1,  2,  3,  4,  5,  6,  7, 15, 16, 17, 18, 19, 20, 21, 29, 30
 31, 32, 33, 34, 35, 43, 44, 45, 46, 47, 48, 49, 57, 58, 59, 60
 61, 62, 63, 71, 72, 73, 74, 75, 76, 77, 85, 86, 87, 88, 89, 90
 91,
*Elset, elset=__PickedSurf468_S3, internal, instance=B-10-4
  1,  2,  3,  4,  5,  6,  7, 15, 16, 17, 18, 19, 20, 21, 29, 30
 31, 32, 33, 34, 35, 43, 44, 45, 46, 47, 48, 49, 57, 58, 59, 60
 61, 62, 63, 71, 72, 73, 74, 75, 76, 77, 85, 86, 87, 88, 89, 90
 91,
*Elset, elset=__PickedSurf468_S3, internal, instance=B-10-9
  1,  2,  3,  4,  5,  6,  7, 15, 16, 17, 18, 19, 20, 21, 29, 30
 31, 32, 33, 34, 35, 43, 44, 45, 46, 47, 48, 49, 57, 58, 59, 60
 61, 62, 63, 71, 72, 73, 74, 75, 76, 77, 85, 86, 87, 88, 89, 90
 91,
*Elset, elset=__PickedSurf468_S3, internal, instance=B-10-1
  1,  2,  3,  4,  5,  6,  7, 15, 16, 17, 18, 19, 20, 21, 29, 30
 31, 32, 33, 34, 35, 43, 44, 45, 46, 47, 48, 49, 57, 58, 59, 60
 61, 62, 63, 71, 72, 73, 74, 75, 76, 77, 85, 86, 87, 88, 89, 90
 91,
*Elset, elset=__PickedSurf468_S3, internal, instance=B-10-3
  1,  2,  3,  4,  5,  6,  7, 15, 16, 17, 18, 19, 20, 21, 29, 30
 31, 32, 33, 34, 35, 43, 44, 45, 46, 47, 48, 49, 57, 58, 59, 60
 61, 62, 63, 71, 72, 73, 74, 75, 76, 77, 85, 86, 87, 88, 89, 90
 91,
*Elset, elset=__PickedSurf468_S3, internal, instance=B-10-2
  1,  2,  3,  4,  5,  6,  7, 15, 16, 17, 18, 19, 20, 21, 29, 30
 31, 32, 33, 34, 35, 43, 44, 45, 46, 47, 48, 49, 57, 58, 59, 60
 61, 62, 63, 71, 72, 73, 74, 75, 76, 77, 85, 86, 87, 88, 89, 90
 91,
*Elset, elset=__PickedSurf468_S3, internal, instance=B-10-7
  1,  2,  3,  4,  5,  6,  7, 15, 16, 17, 18, 19, 20, 21, 29, 30
 31, 32, 33, 34, 35, 43, 44, 45, 46, 47, 48, 49, 57, 58, 59, 60
 61, 62, 63, 71, 72, 73, 74, 75, 76, 77, 85, 86, 87, 88, 89, 90
 91,
*Elset, elset=__PickedSurf468_S3, internal, instance=B-10-5
  1,  2,  3,  4,  5,  6,  7, 15, 16, 17, 18, 19, 20, 21, 29, 30
 31, 32, 33, 34, 35, 43, 44, 45, 46, 47, 48, 49, 57, 58, 59, 60
 61, 62, 63, 71, 72, 73, 74, 75, 76, 77, 85, 86, 87, 88, 89, 90
 91,
*Surface, type=ELEMENT, name=_PickedSurf468, internal
__PickedSurf468_S3, S3
*Elset, elset=__PickedSurf469_S3, internal, instance=B-9-10
  1,  2,  3,  4,  5,  6,  7, 15, 16, 17, 18, 19, 20, 21, 29, 30
 31, 32, 33, 34, 35, 43, 44, 45, 46, 47, 48, 49
*Elset, elset=__PickedSurf469_S3, internal, instance=B-9-9
  1,  2,  3,  4,  5,  6,  7, 15, 16, 17, 18, 19, 20, 21, 29, 30
 31, 32, 33, 34, 35, 43, 44, 45, 46, 47, 48, 49, 57, 58, 59, 60
 61, 62, 63, 71, 72, 73, 74, 75, 76, 77, 85, 86, 87, 88, 89, 90
 91,
*Elset, elset=__PickedSurf469_S3, internal, instance=B-9-8
  1,  2,  3,  4,  5,  6,  7, 15, 16, 17, 18, 19, 20, 21, 29, 30
 31, 32, 33, 34, 35, 43, 44, 45, 46, 47, 48, 49, 57, 58, 59, 60
 61, 62, 63, 71, 72, 73, 74, 75, 76, 77, 85, 86, 87, 88, 89, 90
 91,
*Elset, elset=__PickedSurf469_S3, internal, instance=B-9-6
  1,  2,  3,  4,  5,  6,  7, 15, 16, 17, 18, 19, 20, 21, 29, 30
 31, 32, 33, 34, 35, 43, 44, 45, 46, 47, 48, 49, 57, 58, 59, 60
 61, 62, 63, 71, 72, 73, 74, 75, 76, 77, 85, 86, 87, 88, 89, 90
 91,
*Elset, elset=__PickedSurf469_S3, internal, instance=B-9-4
  1,  2,  3,  4,  5,  6,  7, 15, 16, 17, 18, 19, 20, 21, 29, 30
 31, 32, 33, 34, 35, 43, 44, 45, 46, 47, 48, 49, 57, 58, 59, 60
 61, 62, 63, 71, 72, 73, 74, 75, 76, 77, 85, 86, 87, 88, 89, 90
 91,
*Elset, elset=__PickedSurf469_S3, internal, instance=B-9-2
  1,  2,  3,  4,  5,  6,  7, 15, 16, 17, 18, 19, 20, 21, 29, 30
 31, 32, 33, 34, 35, 43, 44, 45, 46, 47, 48, 49, 57, 58, 59, 60
 61, 62, 63, 71, 72, 73, 74, 75, 76, 77, 85, 86, 87, 88, 89, 90
 91,
*Elset, elset=__PickedSurf469_S3, internal, instance=B-9-7
  1,  2,  3,  4,  5,  6,  7, 15, 16, 17, 18, 19, 20, 21, 29, 30
 31, 32, 33, 34, 35, 43, 44, 45, 46, 47, 48, 49, 57, 58, 59, 60
 61, 62, 63, 71, 72, 73, 74, 75, 76, 77, 85, 86, 87, 88, 89, 90
 91,
*Elset, elset=__PickedSurf469_S3, internal, instance=B-9-1
  1,  2,  3,  4,  5,  6,  7, 15, 16, 17, 18, 19, 20, 21, 29, 30
 31, 32, 33, 34, 35, 43, 44, 45, 46, 47, 48, 49
*Elset, elset=__PickedSurf469_S3, internal, instance=B-9-5
  1,  2,  3,  4,  5,  6,  7, 15, 16, 17, 18, 19, 20, 21, 29, 30
 31, 32, 33, 34, 35, 43, 44, 45, 46, 47, 48, 49, 57, 58, 59, 60
 61, 62, 63, 71, 72, 73, 74, 75, 76, 77, 85, 86, 87, 88, 89, 90
 91,
*Elset, elset=__PickedSurf469_S3, internal, instance=B-9-3
  1,  2,  3,  4,  5,  6,  7, 15, 16, 17, 18, 19, 20, 21, 29, 30
 31, 32, 33, 34, 35, 43, 44, 45, 46, 47, 48, 49, 57, 58, 59, 60
 61, 62, 63, 71, 72, 73, 74, 75, 76, 77, 85, 86, 87, 88, 89, 90
 91,
*Surface, type=ELEMENT, name=_PickedSurf469, internal
__PickedSurf469_S3, S3
*Elset, elset=__PickedSurf470_S3, internal, instance=B-8-8
  1,  2,  3,  4,  5,  6,  7, 15, 16, 17, 18, 19, 20, 21, 29, 30
 31, 32, 33, 34, 35, 43, 44, 45, 46, 47, 48, 49, 57, 58, 59, 60
 61, 62, 63, 71, 72, 73, 74, 75, 76, 77, 85, 86, 87, 88, 89, 90
 91,
*Elset, elset=__PickedSurf470_S3, internal, instance=B-8-6
  1,  2,  3,  4,  5,  6,  7, 15, 16, 17, 18, 19, 20, 21, 29, 30
 31, 32, 33, 34, 35, 43, 44, 45, 46, 47, 48, 49, 57, 58, 59, 60
 61, 62, 63, 71, 72, 73, 74, 75, 76, 77, 85, 86, 87, 88, 89, 90
 91,
*Elset, elset=__PickedSurf470_S3, internal, instance=B-8-4
  1,  2,  3,  4,  5,  6,  7, 15, 16, 17, 18, 19, 20, 21, 29, 30
 31, 32, 33, 34, 35, 43, 44, 45, 46, 47, 48, 49, 57, 58, 59, 60
 61, 62, 63, 71, 72, 73, 74, 75, 76, 77, 85, 86, 87, 88, 89, 90
 91,
*Elset, elset=__PickedSurf470_S3, internal, instance=B-8-2
  1,  2,  3,  4,  5,  6,  7, 15, 16, 17, 18, 19, 20, 21, 29, 30
 31, 32, 33, 34, 35, 43, 44, 45, 46, 47, 48, 49, 57, 58, 59, 60
 61, 62, 63, 71, 72, 73, 74, 75, 76, 77, 85, 86, 87, 88, 89, 90
 91,
*Elset, elset=__PickedSurf470_S3, internal, instance=B-8-7
  1,  2,  3,  4,  5,  6,  7, 15, 16, 17, 18, 19, 20, 21, 29, 30
 31, 32, 33, 34, 35, 43, 44, 45, 46, 47, 48, 49, 57, 58, 59, 60
 61, 62, 63, 71, 72, 73, 74, 75, 76, 77, 85, 86, 87, 88, 89, 90
 91,
*Elset, elset=__PickedSurf470_S3, internal, instance=B-8-5
  1,  2,  3,  4,  5,  6,  7, 15, 16, 17, 18, 19, 20, 21, 29, 30
 31, 32, 33, 34, 35, 43, 44, 45, 46, 47, 48, 49, 57, 58, 59, 60
 61, 62, 63, 71, 72, 73, 74, 75, 76, 77, 85, 86, 87, 88, 89, 90
 91,
*Elset, elset=__PickedSurf470_S3, internal, instance=B-8-9
  1,  2,  3,  4,  5,  6,  7, 15, 16, 17, 18, 19, 20, 21, 29, 30
 31, 32, 33, 34, 35, 43, 44, 45, 46, 47, 48, 49, 57, 58, 59, 60
 61, 62, 63, 71, 72, 73, 74, 75, 76, 77, 85, 86, 87, 88, 89, 90
 91,
*Elset, elset=__PickedSurf470_S3, internal, instance=B-8-3
  1,  2,  3,  4,  5,  6,  7, 15, 16, 17, 18, 19, 20, 21, 29, 30
 31, 32, 33, 34, 35, 43, 44, 45, 46, 47, 48, 49, 57, 58, 59, 60
 61, 62, 63, 71, 72, 73, 74, 75, 76, 77, 85, 86, 87, 88, 89, 90
 91,
*Elset, elset=__PickedSurf470_S3, internal, instance=B-8-1
  1,  2,  3,  4,  5,  6,  7, 15, 16, 17, 18, 19, 20, 21, 29, 30
 31, 32, 33, 34, 35, 43, 44, 45, 46, 47, 48, 49, 57, 58, 59, 60
 61, 62, 63, 71, 72, 73, 74, 75, 76, 77, 85, 86, 87, 88, 89, 90
 91,
*Surface, type=ELEMENT, name=_PickedSurf470, internal
__PickedSurf470_S3, S3
*Elset, elset=__PickedSurf471_S3, internal, instance=B-7-10
  1,  2,  3,  4,  5,  6,  7, 15, 16, 17, 18, 19, 20, 21, 29, 30
 31, 32, 33, 34, 35, 43, 44, 45, 46, 47, 48, 49
*Elset, elset=__PickedSurf471_S3, internal, instance=B-7-9
  1,  2,  3,  4,  5,  6,  7, 15, 16, 17, 18, 19, 20, 21, 29, 30
 31, 32, 33, 34, 35, 43, 44, 45, 46, 47, 48, 49, 57, 58, 59, 60
 61, 62, 63, 71, 72, 73, 74, 75, 76, 77, 85, 86, 87, 88, 89, 90
 91,
*Elset, elset=__PickedSurf471_S3, internal, instance=B-7-8
  1,  2,  3,  4,  5,  6,  7, 15, 16, 17, 18, 19, 20, 21, 29, 30
 31, 32, 33, 34, 35, 43, 44, 45, 46, 47, 48, 49, 57, 58, 59, 60
 61, 62, 63, 71, 72, 73, 74, 75, 76, 77, 85, 86, 87, 88, 89, 90
 91,
*Elset, elset=__PickedSurf471_S3, internal, instance=B-7-1
  1,  2,  3,  4,  5,  6,  7, 15, 16, 17, 18, 19, 20, 21, 29, 30
 31, 32, 33, 34, 35, 43, 44, 45, 46, 47, 48, 49
*Elset, elset=__PickedSurf471_S3, internal, instance=B-7-5
  1,  2,  3,  4,  5,  6,  7, 15, 16, 17, 18, 19, 20, 21, 29, 30
 31, 32, 33, 34, 35, 43, 44, 45, 46, 47, 48, 49, 57, 58, 59, 60
 61, 62, 63, 71, 72, 73, 74, 75, 76, 77, 85, 86, 87, 88, 89, 90
 91,
*Elset, elset=__PickedSurf471_S3, internal, instance=B-7-3
  1,  2,  3,  4,  5,  6,  7, 15, 16, 17, 18, 19, 20, 21, 29, 30
 31, 32, 33, 34, 35, 43, 44, 45, 46, 47, 48, 49, 57, 58, 59, 60
 61, 62, 63, 71, 72, 73, 74, 75, 76, 77, 85, 86, 87, 88, 89, 90
 91,
*Elset, elset=__PickedSurf471_S3, internal, instance=B-7-6
  1,  2,  3,  4,  5,  6,  7, 15, 16, 17, 18, 19, 20, 21, 29, 30
 31, 32, 33, 34, 35, 43, 44, 45, 46, 47, 48, 49, 57, 58, 59, 60
 61, 62, 63, 71, 72, 73, 74, 75, 76, 77, 85, 86, 87, 88, 89, 90
 91,
*Elset, elset=__PickedSurf471_S3, internal, instance=B-7-2
  1,  2,  3,  4,  5,  6,  7, 15, 16, 17, 18, 19, 20, 21, 29, 30
 31, 32, 33, 34, 35, 43, 44, 45, 46, 47, 48, 49, 57, 58, 59, 60
 61, 62, 63, 71, 72, 73, 74, 75, 76, 77, 85, 86, 87, 88, 89, 90
 91,
*Elset, elset=__PickedSurf471_S3, internal, instance=B-7-7
  1,  2,  3,  4,  5,  6,  7, 15, 16, 17, 18, 19, 20, 21, 29, 30
 31, 32, 33, 34, 35, 43, 44, 45, 46, 47, 48, 49, 57, 58, 59, 60
 61, 62, 63, 71, 72, 73, 74, 75, 76, 77, 85, 86, 87, 88, 89, 90
 91,
*Elset, elset=__PickedSurf471_S3, internal, instance=B-7-4
  1,  2,  3,  4,  5,  6,  7, 15, 16, 17, 18, 19, 20, 21, 29, 30
 31, 32, 33, 34, 35, 43, 44, 45, 46, 47, 48, 49, 57, 58, 59, 60
 61, 62, 63, 71, 72, 73, 74, 75, 76, 77, 85, 86, 87, 88, 89, 90
 91,
*Surface, type=ELEMENT, name=_PickedSurf471, internal
__PickedSurf471_S3, S3
*Elset, elset=__PickedSurf472_S3, internal, instance=B-6-8
  1,  2,  3,  4,  5,  6,  7, 15, 16, 17, 18, 19, 20, 21, 29, 30
 31, 32, 33, 34, 35, 43, 44, 45, 46, 47, 48, 49, 57, 58, 59, 60
 61, 62, 63, 71, 72, 73, 74, 75, 76, 77, 85, 86, 87, 88, 89, 90
 91,
*Elset, elset=__PickedSurf472_S3, internal, instance=B-6-6
  1,  2,  3,  4,  5,  6,  7, 15, 16, 17, 18, 19, 20, 21, 29, 30
 31, 32, 33, 34, 35, 43, 44, 45, 46, 47, 48, 49, 57, 58, 59, 60
 61, 62, 63, 71, 72, 73, 74, 75, 76, 77, 85, 86, 87, 88, 89, 90
 91,
*Elset, elset=__PickedSurf472_S3, internal, instance=B-6-4
  1,  2,  3,  4,  5,  6,  7, 15, 16, 17, 18, 19, 20, 21, 29, 30
 31, 32, 33, 34, 35, 43, 44, 45, 46, 47, 48, 49, 57, 58, 59, 60
 61, 62, 63, 71, 72, 73, 74, 75, 76, 77, 85, 86, 87, 88, 89, 90
 91,
*Elset, elset=__PickedSurf472_S3, internal, instance=B-6-2
  1,  2,  3,  4,  5,  6,  7, 15, 16, 17, 18, 19, 20, 21, 29, 30
 31, 32, 33, 34, 35, 43, 44, 45, 46, 47, 48, 49, 57, 58, 59, 60
 61, 62, 63, 71, 72, 73, 74, 75, 76, 77, 85, 86, 87, 88, 89, 90
 91,
*Elset, elset=__PickedSurf472_S3, internal, instance=B-6-7
  1,  2,  3,  4,  5,  6,  7, 15, 16, 17, 18, 19, 20, 21, 29, 30
 31, 32, 33, 34, 35, 43, 44, 45, 46, 47, 48, 49, 57, 58, 59, 60
 61, 62, 63, 71, 72, 73, 74, 75, 76, 77, 85, 86, 87, 88, 89, 90
 91,
*Elset, elset=__PickedSurf472_S3, internal, instance=B-6-5
  1,  2,  3,  4,  5,  6,  7, 15, 16, 17, 18, 19, 20, 21, 29, 30
 31, 32, 33, 34, 35, 43, 44, 45, 46, 47, 48, 49, 57, 58, 59, 60
 61, 62, 63, 71, 72, 73, 74, 75, 76, 77, 85, 86, 87, 88, 89, 90
 91,
*Elset, elset=__PickedSurf472_S3, internal, instance=B-6-9
  1,  2,  3,  4,  5,  6,  7, 15, 16, 17, 18, 19, 20, 21, 29, 30
 31, 32, 33, 34, 35, 43, 44, 45, 46, 47, 48, 49, 57, 58, 59, 60
 61, 62, 63, 71, 72, 73, 74, 75, 76, 77, 85, 86, 87, 88, 89, 90
 91,
*Elset, elset=__PickedSurf472_S3, internal, instance=B-6-3
  1,  2,  3,  4,  5,  6,  7, 15, 16, 17, 18, 19, 20, 21, 29, 30
 31, 32, 33, 34, 35, 43, 44, 45, 46, 47, 48, 49, 57, 58, 59, 60
 61, 62, 63, 71, 72, 73, 74, 75, 76, 77, 85, 86, 87, 88, 89, 90
 91,
*Elset, elset=__PickedSurf472_S3, internal, instance=B-6-1
  1,  2,  3,  4,  5,  6,  7, 15, 16, 17, 18, 19, 20, 21, 29, 30
 31, 32, 33, 34, 35, 43, 44, 45, 46, 47, 48, 49, 57, 58, 59, 60
 61, 62, 63, 71, 72, 73, 74, 75, 76, 77, 85, 86, 87, 88, 89, 90
 91,
*Surface, type=ELEMENT, name=_PickedSurf472, internal
__PickedSurf472_S3, S3
*Elset, elset=__PickedSurf473_S3, internal, instance=B-5-10
  1,  2,  3,  4,  5,  6,  7, 15, 16, 17, 18, 19, 20, 21, 29, 30
 31, 32, 33, 34, 35, 43, 44, 45, 46, 47, 48, 49
*Elset, elset=__PickedSurf473_S3, internal, instance=B-5-9
  1,  2,  3,  4,  5,  6,  7, 15, 16, 17, 18, 19, 20, 21, 29, 30
 31, 32, 33, 34, 35, 43, 44, 45, 46, 47, 48, 49, 57, 58, 59, 60
 61, 62, 63, 71, 72, 73, 74, 75, 76, 77, 85, 86, 87, 88, 89, 90
 91,
*Elset, elset=__PickedSurf473_S3, internal, instance=B-5-8
  1,  2,  3,  4,  5,  6,  7, 15, 16, 17, 18, 19, 20, 21, 29, 30
 31, 32, 33, 34, 35, 43, 44, 45, 46, 47, 48, 49, 57, 58, 59, 60
 61, 62, 63, 71, 72, 73, 74, 75, 76, 77, 85, 86, 87, 88, 89, 90
 91,
*Elset, elset=__PickedSurf473_S3, internal, instance=B-5-1
  1,  2,  3,  4,  5,  6,  7, 15, 16, 17, 18, 19, 20, 21, 29, 30
 31, 32, 33, 34, 35, 43, 44, 45, 46, 47, 48, 49
*Elset, elset=__PickedSurf473_S3, internal, instance=B-5-5
  1,  2,  3,  4,  5,  6,  7, 15, 16, 17, 18, 19, 20, 21, 29, 30
 31, 32, 33, 34, 35, 43, 44, 45, 46, 47, 48, 49, 57, 58, 59, 60
 61, 62, 63, 71, 72, 73, 74, 75, 76, 77, 85, 86, 87, 88, 89, 90
 91,
*Elset, elset=__PickedSurf473_S3, internal, instance=B-5-3
  1,  2,  3,  4,  5,  6,  7, 15, 16, 17, 18, 19, 20, 21, 29, 30
 31, 32, 33, 34, 35, 43, 44, 45, 46, 47, 48, 49, 57, 58, 59, 60
 61, 62, 63, 71, 72, 73, 74, 75, 76, 77, 85, 86, 87, 88, 89, 90
 91,
*Elset, elset=__PickedSurf473_S3, internal, instance=B-5-6
  1,  2,  3,  4,  5,  6,  7, 15, 16, 17, 18, 19, 20, 21, 29, 30
 31, 32, 33, 34, 35, 43, 44, 45, 46, 47, 48, 49, 57, 58, 59, 60
 61, 62, 63, 71, 72, 73, 74, 75, 76, 77, 85, 86, 87, 88, 89, 90
 91,
*Elset, elset=__PickedSurf473_S3, internal, instance=B-5-2
  1,  2,  3,  4,  5,  6,  7, 15, 16, 17, 18, 19, 20, 21, 29, 30
 31, 32, 33, 34, 35, 43, 44, 45, 46, 47, 48, 49, 57, 58, 59, 60
 61, 62, 63, 71, 72, 73, 74, 75, 76, 77, 85, 86, 87, 88, 89, 90
 91,
*Elset, elset=__PickedSurf473_S3, internal, instance=B-5-7
  1,  2,  3,  4,  5,  6,  7, 15, 16, 17, 18, 19, 20, 21, 29, 30
 31, 32, 33, 34, 35, 43, 44, 45, 46, 47, 48, 49, 57, 58, 59, 60
 61, 62, 63, 71, 72, 73, 74, 75, 76, 77, 85, 86, 87, 88, 89, 90
 91,
*Elset, elset=__PickedSurf473_S3, internal, instance=B-5-4
  1,  2,  3,  4,  5,  6,  7, 15, 16, 17, 18, 19, 20, 21, 29, 30
 31, 32, 33, 34, 35, 43, 44, 45, 46, 47, 48, 49, 57, 58, 59, 60
 61, 62, 63, 71, 72, 73, 74, 75, 76, 77, 85, 86, 87, 88, 89, 90
 91,
*Surface, type=ELEMENT, name=_PickedSurf473, internal
__PickedSurf473_S3, S3
*Elset, elset=__PickedSurf474_S3, internal, instance=B-4-8
  1,  2,  3,  4,  5,  6,  7, 15, 16, 17, 18, 19, 20, 21, 29, 30
 31, 32, 33, 34, 35, 43, 44, 45, 46, 47, 48, 49, 57, 58, 59, 60
 61, 62, 63, 71, 72, 73, 74, 75, 76, 77, 85, 86, 87, 88, 89, 90
 91,
*Elset, elset=__PickedSurf474_S3, internal, instance=B-4-6
  1,  2,  3,  4,  5,  6,  7, 15, 16, 17, 18, 19, 20, 21, 29, 30
 31, 32, 33, 34, 35, 43, 44, 45, 46, 47, 48, 49, 57, 58, 59, 60
 61, 62, 63, 71, 72, 73, 74, 75, 76, 77, 85, 86, 87, 88, 89, 90
 91,
*Elset, elset=__PickedSurf474_S3, internal, instance=B-4-4
  1,  2,  3,  4,  5,  6,  7, 15, 16, 17, 18, 19, 20, 21, 29, 30
 31, 32, 33, 34, 35, 43, 44, 45, 46, 47, 48, 49, 57, 58, 59, 60
 61, 62, 63, 71, 72, 73, 74, 75, 76, 77, 85, 86, 87, 88, 89, 90
 91,
*Elset, elset=__PickedSurf474_S3, internal, instance=B-4-9
  1,  2,  3,  4,  5,  6,  7, 15, 16, 17, 18, 19, 20, 21, 29, 30
 31, 32, 33, 34, 35, 43, 44, 45, 46, 47, 48, 49, 57, 58, 59, 60
 61, 62, 63, 71, 72, 73, 74, 75, 76, 77, 85, 86, 87, 88, 89, 90
 91,
*Elset, elset=__PickedSurf474_S3, internal, instance=B-4-3
  1,  2,  3,  4,  5,  6,  7, 15, 16, 17, 18, 19, 20, 21, 29, 30
 31, 32, 33, 34, 35, 43, 44, 45, 46, 47, 48, 49, 57, 58, 59, 60
 61, 62, 63, 71, 72, 73, 74, 75, 76, 77, 85, 86, 87, 88, 89, 90
 91,
*Elset, elset=__PickedSurf474_S3, internal, instance=B-4-1
  1,  2,  3,  4,  5,  6,  7, 15, 16, 17, 18, 19, 20, 21, 29, 30
 31, 32, 33, 34, 35, 43, 44, 45, 46, 47, 48, 49, 57, 58, 59, 60
 61, 62, 63, 71, 72, 73, 74, 75, 76, 77, 85, 86, 87, 88, 89, 90
 91,
*Elset, elset=__PickedSurf474_S3, internal, instance=B-4-2
  1,  2,  3,  4,  5,  6,  7, 15, 16, 17, 18, 19, 20, 21, 29, 30
 31, 32, 33, 34, 35, 43, 44, 45, 46, 47, 48, 49, 57, 58, 59, 60
 61, 62, 63, 71, 72, 73, 74, 75, 76, 77, 85, 86, 87, 88, 89, 90
 91,
*Elset, elset=__PickedSurf474_S3, internal, instance=B-4-5
  1,  2,  3,  4,  5,  6,  7, 15, 16, 17, 18, 19, 20, 21, 29, 30
 31, 32, 33, 34, 35, 43, 44, 45, 46, 47, 48, 49, 57, 58, 59, 60
 61, 62, 63, 71, 72, 73, 74, 75, 76, 77, 85, 86, 87, 88, 89, 90
 91,
*Elset, elset=__PickedSurf474_S3, internal, instance=B-4-7
  1,  2,  3,  4,  5,  6,  7, 15, 16, 17, 18, 19, 20, 21, 29, 30
 31, 32, 33, 34, 35, 43, 44, 45, 46, 47, 48, 49, 57, 58, 59, 60
 61, 62, 63, 71, 72, 73, 74, 75, 76, 77, 85, 86, 87, 88, 89, 90
 91,
*Surface, type=ELEMENT, name=_PickedSurf474, internal
__PickedSurf474_S3, S3
*Elset, elset=__PickedSurf475_S3, internal, instance=B-3-10
  1,  2,  3,  4,  5,  6,  7, 15, 16, 17, 18, 19, 20, 21, 29, 30
 31, 32, 33, 34, 35, 43, 44, 45, 46, 47, 48, 49
*Elset, elset=__PickedSurf475_S3, internal, instance=B-3-9
  1,  2,  3,  4,  5,  6,  7, 15, 16, 17, 18, 19, 20, 21, 29, 30
 31, 32, 33, 34, 35, 43, 44, 45, 46, 47, 48, 49, 57, 58, 59, 60
 61, 62, 63, 71, 72, 73, 74, 75, 76, 77, 85, 86, 87, 88, 89, 90
 91,
*Elset, elset=__PickedSurf475_S3, internal, instance=B-3-8
  1,  2,  3,  4,  5,  6,  7, 15, 16, 17, 18, 19, 20, 21, 29, 30
 31, 32, 33, 34, 35, 43, 44, 45, 46, 47, 48, 49, 57, 58, 59, 60
 61, 62, 63, 71, 72, 73, 74, 75, 76, 77, 85, 86, 87, 88, 89, 90
 91,
*Elset, elset=__PickedSurf475_S3, internal, instance=B-3-6
  1,  2,  3,  4,  5,  6,  7, 15, 16, 17, 18, 19, 20, 21, 29, 30
 31, 32, 33, 34, 35, 43, 44, 45, 46, 47, 48, 49, 57, 58, 59, 60
 61, 62, 63, 71, 72, 73, 74, 75, 76, 77, 85, 86, 87, 88, 89, 90
 91,
*Elset, elset=__PickedSurf475_S3, internal, instance=B-3-2
  1,  2,  3,  4,  5,  6,  7, 15, 16, 17, 18, 19, 20, 21, 29, 30
 31, 32, 33, 34, 35, 43, 44, 45, 46, 47, 48, 49, 57, 58, 59, 60
 61, 62, 63, 71, 72, 73, 74, 75, 76, 77, 85, 86, 87, 88, 89, 90
 91,
*Elset, elset=__PickedSurf475_S3, internal, instance=B-3-7
  1,  2,  3,  4,  5,  6,  7, 15, 16, 17, 18, 19, 20, 21, 29, 30
 31, 32, 33, 34, 35, 43, 44, 45, 46, 47, 48, 49, 57, 58, 59, 60
 61, 62, 63, 71, 72, 73, 74, 75, 76, 77, 85, 86, 87, 88, 89, 90
 91,
*Elset, elset=__PickedSurf475_S3, internal, instance=B-3-4
  1,  2,  3,  4,  5,  6,  7, 15, 16, 17, 18, 19, 20, 21, 29, 30
 31, 32, 33, 34, 35, 43, 44, 45, 46, 47, 48, 49, 57, 58, 59, 60
 61, 62, 63, 71, 72, 73, 74, 75, 76, 77, 85, 86, 87, 88, 89, 90
 91,
*Elset, elset=__PickedSurf475_S3, internal, instance=B-3-1
  1,  2,  3,  4,  5,  6,  7, 15, 16, 17, 18, 19, 20, 21, 29, 30
 31, 32, 33, 34, 35, 43, 44, 45, 46, 47, 48, 49
*Elset, elset=__PickedSurf475_S3, internal, instance=B-3-3
  1,  2,  3,  4,  5,  6,  7, 15, 16, 17, 18, 19, 20, 21, 29, 30
 31, 32, 33, 34, 35, 43, 44, 45, 46, 47, 48, 49, 57, 58, 59, 60
 61, 62, 63, 71, 72, 73, 74, 75, 76, 77, 85, 86, 87, 88, 89, 90
 91,
*Elset, elset=__PickedSurf475_S3, internal, instance=B-3-5
  1,  2,  3,  4,  5,  6,  7, 15, 16, 17, 18, 19, 20, 21, 29, 30
 31, 32, 33, 34, 35, 43, 44, 45, 46, 47, 48, 49, 57, 58, 59, 60
 61, 62, 63, 71, 72, 73, 74, 75, 76, 77, 85, 86, 87, 88, 89, 90
 91,
*Surface, type=ELEMENT, name=_PickedSurf475, internal
__PickedSurf475_S3, S3
*Elset, elset=__PickedSurf476_S3, internal, instance=B-2-1
  1,  2,  3,  4,  5,  6,  7, 15, 16, 17, 18, 19, 20, 21, 29, 30
 31, 32, 33, 34, 35, 43, 44, 45, 46, 47, 48, 49, 57, 58, 59, 60
 61, 62, 63, 71, 72, 73, 74, 75, 76, 77, 85, 86, 87, 88, 89, 90
 91,
*Elset, elset=__PickedSurf476_S3, internal, instance=B-2-2
  1,  2,  3,  4,  5,  6,  7, 15, 16, 17, 18, 19, 20, 21, 29, 30
 31, 32, 33, 34, 35, 43, 44, 45, 46, 47, 48, 49, 57, 58, 59, 60
 61, 62, 63, 71, 72, 73, 74, 75, 76, 77, 85, 86, 87, 88, 89, 90
 91,
*Elset, elset=__PickedSurf476_S3, internal, instance=B-2-3
  1,  2,  3,  4,  5,  6,  7, 15, 16, 17, 18, 19, 20, 21, 29, 30
 31, 32, 33, 34, 35, 43, 44, 45, 46, 47, 48, 49, 57, 58, 59, 60
 61, 62, 63, 71, 72, 73, 74, 75, 76, 77, 85, 86, 87, 88, 89, 90
 91,
*Elset, elset=__PickedSurf476_S3, internal, instance=B-2-7
  1,  2,  3,  4,  5,  6,  7, 15, 16, 17, 18, 19, 20, 21, 29, 30
 31, 32, 33, 34, 35, 43, 44, 45, 46, 47, 48, 49, 57, 58, 59, 60
 61, 62, 63, 71, 72, 73, 74, 75, 76, 77, 85, 86, 87, 88, 89, 90
 91,
*Elset, elset=__PickedSurf476_S3, internal, instance=B-2-5
  1,  2,  3,  4,  5,  6,  7, 15, 16, 17, 18, 19, 20, 21, 29, 30
 31, 32, 33, 34, 35, 43, 44, 45, 46, 47, 48, 49, 57, 58, 59, 60
 61, 62, 63, 71, 72, 73, 74, 75, 76, 77, 85, 86, 87, 88, 89, 90
 91,
*Elset, elset=__PickedSurf476_S3, internal, instance=B-2-9
  1,  2,  3,  4,  5,  6,  7, 15, 16, 17, 18, 19, 20, 21, 29, 30
 31, 32, 33, 34, 35, 43, 44, 45, 46, 47, 48, 49, 57, 58, 59, 60
 61, 62, 63, 71, 72, 73, 74, 75, 76, 77, 85, 86, 87, 88, 89, 90
 91,
*Elset, elset=__PickedSurf476_S3, internal, instance=B-2-4
  1,  2,  3,  4,  5,  6,  7, 15, 16, 17, 18, 19, 20, 21, 29, 30
 31, 32, 33, 34, 35, 43, 44, 45, 46, 47, 48, 49, 57, 58, 59, 60
 61, 62, 63, 71, 72, 73, 74, 75, 76, 77, 85, 86, 87, 88, 89, 90
 91,
*Elset, elset=__PickedSurf476_S3, internal, instance=B-2-8
  1,  2,  3,  4,  5,  6,  7, 15, 16, 17, 18, 19, 20, 21, 29, 30
 31, 32, 33, 34, 35, 43, 44, 45, 46, 47, 48, 49, 57, 58, 59, 60
 61, 62, 63, 71, 72, 73, 74, 75, 76, 77, 85, 86, 87, 88, 89, 90
 91,
*Elset, elset=__PickedSurf476_S3, internal, instance=B-2-6
  1,  2,  3,  4,  5,  6,  7, 15, 16, 17, 18, 19, 20, 21, 29, 30
 31, 32, 33, 34, 35, 43, 44, 45, 46, 47, 48, 49, 57, 58, 59, 60
 61, 62, 63, 71, 72, 73, 74, 75, 76, 77, 85, 86, 87, 88, 89, 90
 91,
*Surface, type=ELEMENT, name=_PickedSurf476, internal
__PickedSurf476_S3, S3
*Elset, elset=__PickedSurf477_S3, internal, instance=B-1-10
  1,  2,  3,  4,  5,  6,  7, 15, 16, 17, 18, 19, 20, 21, 29, 30
 31, 32, 33, 34, 35, 43, 44, 45, 46, 47, 48, 49
*Elset, elset=__PickedSurf477_S3, internal, instance=B-1-9
  1,  2,  3,  4,  5,  6,  7, 15, 16, 17, 18, 19, 20, 21, 29, 30
 31, 32, 33, 34, 35, 43, 44, 45, 46, 47, 48, 49, 57, 58, 59, 60
 61, 62, 63, 71, 72, 73, 74, 75, 76, 77, 85, 86, 87, 88, 89, 90
 91,
*Elset, elset=__PickedSurf477_S3, internal, instance=B-1-8
  1,  2,  3,  4,  5,  6,  7, 15, 16, 17, 18, 19, 20, 21, 29, 30
 31, 32, 33, 34, 35, 43, 44, 45, 46, 47, 48, 49, 57, 58, 59, 60
 61, 62, 63, 71, 72, 73, 74, 75, 76, 77, 85, 86, 87, 88, 89, 90
 91,
*Elset, elset=__PickedSurf477_S3, internal, instance=B-1-6
  1,  2,  3,  4,  5,  6,  7, 15, 16, 17, 18, 19, 20, 21, 29, 30
 31, 32, 33, 34, 35, 43, 44, 45, 46, 47, 48, 49, 57, 58, 59, 60
 61, 62, 63, 71, 72, 73, 74, 75, 76, 77, 85, 86, 87, 88, 89, 90
 91,
*Elset, elset=__PickedSurf477_S3, internal, instance=B-1-2
  1,  2,  3,  4,  5,  6,  7, 15, 16, 17, 18, 19, 20, 21, 29, 30
 31, 32, 33, 34, 35, 43, 44, 45, 46, 47, 48, 49, 57, 58, 59, 60
 61, 62, 63, 71, 72, 73, 74, 75, 76, 77, 85, 86, 87, 88, 89, 90
 91,
*Elset, elset=__PickedSurf477_S3, internal, instance=B-1-4
  1,  2,  3,  4,  5,  6,  7, 15, 16, 17, 18, 19, 20, 21, 29, 30
 31, 32, 33, 34, 35, 43, 44, 45, 46, 47, 48, 49, 57, 58, 59, 60
 61, 62, 63, 71, 72, 73, 74, 75, 76, 77, 85, 86, 87, 88, 89, 90
 91,
*Elset, elset=__PickedSurf477_S3, internal, instance=B-1-7
  1,  2,  3,  4,  5,  6,  7, 15, 16, 17, 18, 19, 20, 21, 29, 30
 31, 32, 33, 34, 35, 43, 44, 45, 46, 47, 48, 49, 57, 58, 59, 60
 61, 62, 63, 71, 72, 73, 74, 75, 76, 77, 85, 86, 87, 88, 89, 90
 91,
*Elset, elset=__PickedSurf477_S3, internal, instance=B-1-5
  1,  2,  3,  4,  5,  6,  7, 15, 16, 17, 18, 19, 20, 21, 29, 30
 31, 32, 33, 34, 35, 43, 44, 45, 46, 47, 48, 49, 57, 58, 59, 60
 61, 62, 63, 71, 72, 73, 74, 75, 76, 77, 85, 86, 87, 88, 89, 90
 91,
*Elset, elset=__PickedSurf477_S3, internal, instance=B-1-1
  1,  2,  3,  4,  5,  6,  7, 15, 16, 17, 18, 19, 20, 21, 29, 30
 31, 32, 33, 34, 35, 43, 44, 45, 46, 47, 48, 49
*Elset, elset=__PickedSurf477_S3, internal, instance=B-1-3
  1,  2,  3,  4,  5,  6,  7, 15, 16, 17, 18, 19, 20, 21, 29, 30
 31, 32, 33, 34, 35, 43, 44, 45, 46, 47, 48, 49, 57, 58, 59, 60
 61, 62, 63, 71, 72, 73, 74, 75, 76, 77, 85, 86, 87, 88, 89, 90
 91,
*Surface, type=ELEMENT, name=_PickedSurf477, internal
__PickedSurf477_S3, S3
*Nset, nset="_T-Datum csys-1", internal
_PickedSet484, 
*Transform, nset="_T-Datum csys-1"
          1.,           0.,           0.,           0.,           1.,           0.
** Constraint: Constraint-1
*Rigid Body, ref node=_PickedSet481, analytical surface=Dike.Surf-2
** Constraint: Constraint-2
*Rigid Body, ref node=_PickedSet482, analytical surface=Wall-1.Surf-Wall
** Constraint: Constraint-4
*Rigid Body, ref node=_PickedSet485, analytical surface=Wall-2.Surf-Wall
*End Assembly
*AMPLITUDE, NAME=ROW1
0.000, 0.00000, 0.010, 23.18739, 0.020, 46.37478, 0.030, 69.56218
0.040, 92.74957, 0.050, 115.93696, 0.060, 110.14011, 0.070, 104.34326
0.080, 98.54642, 0.090, 92.74957, 0.100, 86.95272, 0.110, 81.15587
0.120, 75.35902, 0.130, 69.56218, 0.140, 63.76533, 0.150, 57.96848
0.160, 52.17163, 0.170, 46.37478, 0.180, 40.57794, 0.190, 34.78109
0.200, 28.98424, 0.210, 23.18739, 0.220, 17.39054, 0.230, 11.59370
0.240, 5.79685, 0.250, 0.00000, 0.260, 0.00000, 0.270, 0.00000
0.280, 0.00000, 0.290, 0.00000, 0.300, 0.00000, 0.310, 0.00000
0.320, 0.00000, 0.330, 0.00000, 0.340, 0.00000, 0.350, 0.00000
0.360, 0.00000, 0.370, 0.00000, 0.380, 0.00000, 0.390, 0.00000
0.400, 0.00000, 0.410, 0.00000, 0.420, 0.00000, 0.430, 0.00000
0.440, 0.00000, 0.450, 0.00000, 0.460, 0.00000, 0.470, 0.00000
0.480, 0.00000, 0.490, 0.00000, 0.500, 0.00000, 0.510, 0.00000
0.520, 0.00000, 0.530, 0.00000, 0.540, 0.00000, 0.550, 0.00000
0.560, 0.00000, 0.570, 0.00000, 0.580, 0.00000, 0.590, 0.00000
0.600, 0.00000, 0.610, 0.00000, 0.620, 0.00000, 0.630, 0.00000
0.640, 0.00000, 0.650, 0.00000, 0.660, 0.00000, 0.670, 0.00000
0.680, 0.00000, 0.690, 0.00000, 0.700, 0.00000, 0.710, 0.00000
0.720, 0.00000, 0.730, 0.00000, 0.740, 0.00000, 0.750, 0.00000
0.760, 0.00000, 0.770, 0.00000, 0.780, 0.00000, 0.790, 0.00000
0.800, 0.00000, 0.810, 0.00000, 0.820, 0.00000, 0.830, 0.00000
0.840, 0.00000, 0.850, 0.00000, 0.860, 0.00000, 0.870, 0.00000
0.880, 0.00000, 0.890, 0.00000, 0.900, 0.00000, 0.910, 0.00000
0.920, 0.00000, 0.930, 0.00000, 0.940, 0.00000, 0.950, 0.00000
0.960, 0.00000, 0.970, 0.00000, 0.980, 0.00000, 0.990, 0.00000
1.000, 0.00000, 1.010, 0.00000, 1.020, 0.00000, 1.030, 0.00000
1.040, 0.00000, 1.050, 0.00000, 1.060, 0.00000, 1.070, 0.00000
1.080, 0.00000, 1.090, 0.00000, 1.100, 0.00000, 1.110, 0.00000
1.120, 0.00000, 1.130, 0.00000, 1.140, 0.00000, 1.150, 0.00000
1.160, 0.00000, 1.170, 0.00000, 1.180, 0.00000, 1.190, 0.00000
1.200, 0.00000, 1.210, 0.00000, 1.220, 0.00000, 1.230, 0.00000
1.240, 0.00000, 1.250, 0.00000, 1.260, 0.00000, 1.270, 0.00000
1.280, 0.00000, 1.290, 0.00000, 1.300, 0.00000, 1.310, 0.00000
1.320, 0.00000, 1.330, 0.00000, 1.340, 0.00000, 1.350, 0.00000
1.360, 0.00000, 1.370, 0.00000, 1.380, 0.00000, 1.390, 0.00000
1.400, 0.00000, 1.410, 0.00000, 1.420, 0.00000, 1.430, 0.00000
1.440, 0.00000, 1.450, 0.00000, 1.460, 0.00000, 1.470, 0.00000
1.480, 0.00000, 1.490, 0.00000, 1.500, 0.00000, 1.510, 0.00000
1.520, 0.00000, 1.530, 0.00000, 1.540, 0.00000, 1.550, 0.00000
1.560, 0.00000, 1.570, 0.00000, 1.580, 0.00000, 1.590, 0.00000
1.600, 0.00000, 1.610, 0.00000, 1.620, 0.00000, 1.630, 0.00000
1.640, 0.00000, 1.650, 0.00000, 1.660, 0.00000, 1.670, 0.00000
1.680, 0.00000, 1.690, 0.00000, 1.700, 0.00000, 1.710, 0.00000
1.720, 0.00000, 1.730, 0.00000, 1.740, 0.00000, 1.750, 0.00000
1.760, 0.00000, 1.770, 0.00000, 1.780, 0.00000, 1.790, 0.00000
1.800, 0.00000, 1.810, 0.00000, 1.820, 0.00000, 1.830, 0.00000
1.840, 0.00000, 1.850, 0.00000, 1.860, 0.00000, 1.870, 0.00000
1.880, 0.00000, 1.890, 0.00000, 1.900, 0.00000, 1.910, 0.00000
1.920, 0.00000, 1.930, 0.00000, 1.940, 0.00000, 1.950, 0.00000
1.960, 0.00000, 1.970, 0.00000, 1.980, 0.00000, 1.990, 0.00000
2.000, 0.00000, 2.010, 17.59735, 2.020, 35.19470, 2.030, 52.79205
2.040, 70.38940, 2.050, 87.98676, 2.060, 83.58742, 2.070, 79.18808
2.080, 74.78874, 2.090, 70.38940, 2.100, 65.99007, 2.110, 61.59073
2.120, 57.19139, 2.130, 52.79205, 2.140, 48.39272, 2.150, 43.99338
2.160, 39.59404, 2.170, 35.19470, 2.180, 30.79536, 2.190, 26.39603
2.200, 21.99669, 2.210, 17.59735, 2.220, 13.19801, 2.230, 8.79868
2.240, 4.39934, 2.250, 0.00000, 2.260, 0.00000, 2.270, 0.00000
2.280, 0.00000, 2.290, 0.00000, 2.300, 0.00000, 2.310, 0.00000
2.320, 0.00000, 2.330, 0.00000, 2.340, 0.00000, 2.350, 0.00000
2.360, 0.00000, 2.370, 0.00000, 2.380, 0.00000, 2.390, 0.00000
2.400, 0.00000, 2.410, 0.00000, 2.420, 0.00000, 2.430, 0.00000
2.440, 0.00000, 2.450, 0.00000, 2.460, 0.00000, 2.470, 0.00000
2.480, 0.00000, 2.490, 0.00000, 2.500, 0.00000, 2.510, 0.00000
2.520, 0.00000, 2.530, 0.00000, 2.540, 0.00000, 2.550, 0.00000
2.560, 0.00000, 2.570, 0.00000, 2.580, 0.00000, 2.590, 0.00000
2.600, 0.00000, 2.610, 0.00000, 2.620, 0.00000, 2.630, 0.00000
2.640, 0.00000, 2.650, 0.00000, 2.660, 0.00000, 2.670, 0.00000
2.680, 0.00000, 2.690, 0.00000, 2.700, 0.00000, 2.710, 0.00000
2.720, 0.00000, 2.730, 0.00000, 2.740, 0.00000, 2.750, 0.00000
2.760, 0.00000, 2.770, 0.00000, 2.780, 0.00000, 2.790, 0.00000
2.800, 0.00000, 2.810, 0.00000, 2.820, 0.00000, 2.830, 0.00000
2.840, 0.00000, 2.850, 0.00000, 2.860, 0.00000, 2.870, 0.00000
2.880, 0.00000, 2.890, 0.00000, 2.900, 0.00000, 2.910, 0.00000
2.920, 0.00000, 2.930, 0.00000, 2.940, 0.00000, 2.950, 0.00000
2.960, 0.00000, 2.970, 0.00000, 2.980, 0.00000, 2.990, 0.00000
3.000, 0.00000, 3.010, 0.00000, 3.020, 0.00000, 3.030, 0.00000
3.040, 0.00000, 3.050, 0.00000, 3.060, 0.00000, 3.070, 0.00000
3.080, 0.00000, 3.090, 0.00000, 3.100, 0.00000, 3.110, 0.00000
3.120, 0.00000, 3.130, 0.00000, 3.140, 0.00000, 3.150, 0.00000
3.160, 0.00000, 3.170, 0.00000, 3.180, 0.00000, 3.190, 0.00000
3.200, 0.00000, 3.210, 0.00000, 3.220, 0.00000, 3.230, 0.00000
3.240, 0.00000, 3.250, 0.00000, 3.260, 0.00000, 3.270, 0.00000
3.280, 0.00000, 3.290, 0.00000, 3.300, 0.00000, 3.310, 0.00000
3.320, 0.00000, 3.330, 0.00000, 3.340, 0.00000, 3.350, 0.00000
3.360, 0.00000, 3.370, 0.00000, 3.380, 0.00000, 3.390, 0.00000
3.400, 0.00000, 3.410, 0.00000, 3.420, 0.00000, 3.430, 0.00000
3.440, 0.00000, 3.450, 0.00000, 3.460, 0.00000, 3.470, 0.00000
3.480, 0.00000, 3.490, 0.00000, 3.500, 0.00000, 3.510, 0.00000
3.520, 0.00000, 3.530, 0.00000, 3.540, 0.00000, 3.550, 0.00000
3.560, 0.00000, 3.570, 0.00000, 3.580, 0.00000, 3.590, 0.00000
3.600, 0.00000, 3.610, 0.00000, 3.620, 0.00000, 3.630, 0.00000
3.640, 0.00000, 3.650, 0.00000, 3.660, 0.00000, 3.670, 0.00000
3.680, 0.00000, 3.690, 0.00000, 3.700, 0.00000, 3.710, 0.00000
3.720, 0.00000, 3.730, 0.00000, 3.740, 0.00000, 3.750, 0.00000
3.760, 0.00000, 3.770, 0.00000, 3.780, 0.00000, 3.790, 0.00000
3.800, 0.00000, 3.810, 0.00000, 3.820, 0.00000, 3.830, 0.00000
3.840, 0.00000, 3.850, 0.00000, 3.860, 0.00000, 3.870, 0.00000
3.880, 0.00000, 3.890, 0.00000, 3.900, 0.00000, 3.910, 0.00000
3.920, 0.00000, 3.930, 0.00000, 3.940, 0.00000, 3.950, 0.00000
3.960, 0.00000, 3.970, 0.00000, 3.980, 0.00000, 3.990, 0.00000
4.000, 0.00000, 4.010, 14.85385, 4.020, 29.70770, 4.030, 44.56154
4.040, 59.41539, 4.050, 74.26924, 4.060, 70.55578, 4.070, 66.84232
4.080, 63.12885, 4.090, 59.41539, 4.100, 55.70193, 4.110, 51.98847
4.120, 48.27501, 4.130, 44.56154, 4.140, 40.84808, 4.150, 37.13462
4.160, 33.42116, 4.170, 29.70770, 4.180, 25.99423, 4.190, 22.28077
4.200, 18.56731, 4.210, 14.85385, 4.220, 11.14039, 4.230, 7.42692
4.240, 3.71346, 4.250, 0.00000, 4.260, 0.00000, 4.270, 0.00000
4.280, 0.00000, 4.290, 0.00000, 4.300, 0.00000, 4.310, 0.00000
4.320, 0.00000, 4.330, 0.00000, 4.340, 0.00000, 4.350, 0.00000
4.360, 0.00000, 4.370, 0.00000, 4.380, 0.00000, 4.390, 0.00000
4.400, 0.00000, 4.410, 0.00000, 4.420, 0.00000, 4.430, 0.00000
4.440, 0.00000, 4.450, 0.00000, 4.460, 0.00000, 4.470, 0.00000
4.480, 0.00000, 4.490, 0.00000, 4.500, 0.00000, 4.510, 0.00000
4.520, 0.00000, 4.530, 0.00000, 4.540, 0.00000, 4.550, 0.00000
4.560, 0.00000, 4.570, 0.00000, 4.580, 0.00000, 4.590, 0.00000
4.600, 0.00000, 4.610, 0.00000, 4.620, 0.00000, 4.630, 0.00000
4.640, 0.00000, 4.650, 0.00000, 4.660, 0.00000, 4.670, 0.00000
4.680, 0.00000, 4.690, 0.00000, 4.700, 0.00000, 4.710, 0.00000
4.720, 0.00000, 4.730, 0.00000, 4.740, 0.00000, 4.750, 0.00000
4.760, 0.00000, 4.770, 0.00000, 4.780, 0.00000, 4.790, 0.00000
4.800, 0.00000, 4.810, 0.00000, 4.820, 0.00000, 4.830, 0.00000
4.840, 0.00000, 4.850, 0.00000, 4.860, 0.00000, 4.870, 0.00000
4.880, 0.00000, 4.890, 0.00000, 4.900, 0.00000, 4.910, 0.00000
4.920, 0.00000, 4.930, 0.00000, 4.940, 0.00000, 4.950, 0.00000
4.960, 0.00000, 4.970, 0.00000, 4.980, 0.00000, 4.990, 0.00000
5.000, 0.00000, 5.010, 0.00000, 5.020, 0.00000, 5.030, 0.00000
5.040, 0.00000, 5.050, 0.00000, 5.060, 0.00000, 5.070, 0.00000
5.080, 0.00000, 5.090, 0.00000, 5.100, 0.00000, 5.110, 0.00000
5.120, 0.00000, 5.130, 0.00000, 5.140, 0.00000, 5.150, 0.00000
5.160, 0.00000, 5.170, 0.00000, 5.180, 0.00000, 5.190, 0.00000
5.200, 0.00000, 5.210, 0.00000, 5.220, 0.00000, 5.230, 0.00000
5.240, 0.00000, 5.250, 0.00000, 5.260, 0.00000, 5.270, 0.00000
5.280, 0.00000, 5.290, 0.00000, 5.300, 0.00000, 5.310, 0.00000
5.320, 0.00000, 5.330, 0.00000, 5.340, 0.00000, 5.350, 0.00000
5.360, 0.00000, 5.370, 0.00000, 5.380, 0.00000, 5.390, 0.00000
5.400, 0.00000, 5.410, 0.00000, 5.420, 0.00000, 5.430, 0.00000
5.440, 0.00000, 5.450, 0.00000, 5.460, 0.00000, 5.470, 0.00000
5.480, 0.00000, 5.490, 0.00000, 5.500, 0.00000, 5.510, 0.00000
5.520, 0.00000, 5.530, 0.00000, 5.540, 0.00000, 5.550, 0.00000
5.560, 0.00000, 5.570, 0.00000, 5.580, 0.00000, 5.590, 0.00000
5.600, 0.00000, 5.610, 0.00000, 5.620, 0.00000, 5.630, 0.00000
5.640, 0.00000, 5.650, 0.00000, 5.660, 0.00000, 5.670, 0.00000
5.680, 0.00000, 5.690, 0.00000, 5.700, 0.00000, 5.710, 0.00000
5.720, 0.00000, 5.730, 0.00000, 5.740, 0.00000, 5.750, 0.00000
5.760, 0.00000, 5.770, 0.00000, 5.780, 0.00000, 5.790, 0.00000
5.800, 0.00000, 5.810, 0.00000, 5.820, 0.00000, 5.830, 0.00000
5.840, 0.00000, 5.850, 0.00000, 5.860, 0.00000, 5.870, 0.00000
5.880, 0.00000, 5.890, 0.00000, 5.900, 0.00000, 5.910, 0.00000
5.920, 0.00000, 5.930, 0.00000, 5.940, 0.00000, 5.950, 0.00000
5.960, 0.00000, 5.970, 0.00000, 5.980, 0.00000, 5.990, 0.00000
6.000, 0.00000, 6.010, 13.11751, 6.020, 26.23502, 6.030, 39.35253
6.040, 52.47004, 6.050, 65.58755, 6.060, 62.30817, 6.070, 59.02880
6.080, 55.74942, 6.090, 52.47004, 6.100, 49.19066, 6.110, 45.91129
6.120, 42.63191, 6.130, 39.35253, 6.140, 36.07315, 6.150, 32.79378
6.160, 29.51440, 6.170, 26.23502, 6.180, 22.95564, 6.190, 19.67627
6.200, 16.39689, 6.210, 13.11751, 6.220, 9.83813, 6.230, 6.55876
6.240, 3.27938, 6.250, 0.00000, 6.260, 0.00000, 6.270, 0.00000
6.280, 0.00000, 6.290, 0.00000, 6.300, 0.00000, 6.310, 0.00000
6.320, 0.00000, 6.330, 0.00000, 6.340, 0.00000, 6.350, 0.00000
6.360, 0.00000, 6.370, 0.00000, 6.380, 0.00000, 6.390, 0.00000
6.400, 0.00000, 6.410, 0.00000, 6.420, 0.00000, 6.430, 0.00000
6.440, 0.00000, 6.450, 0.00000, 6.460, 0.00000, 6.470, 0.00000
6.480, 0.00000, 6.490, 0.00000, 6.500, 0.00000, 6.510, 0.00000
6.520, 0.00000, 6.530, 0.00000, 6.540, 0.00000, 6.550, 0.00000
6.560, 0.00000, 6.570, 0.00000, 6.580, 0.00000, 6.590, 0.00000
6.600, 0.00000, 6.610, 0.00000, 6.620, 0.00000, 6.630, 0.00000
6.640, 0.00000, 6.650, 0.00000, 6.660, 0.00000, 6.670, 0.00000
6.680, 0.00000, 6.690, 0.00000, 6.700, 0.00000, 6.710, 0.00000
6.720, 0.00000, 6.730, 0.00000, 6.740, 0.00000, 6.750, 0.00000
6.760, 0.00000, 6.770, 0.00000, 6.780, 0.00000, 6.790, 0.00000
6.800, 0.00000, 6.810, 0.00000, 6.820, 0.00000, 6.830, 0.00000
6.840, 0.00000, 6.850, 0.00000, 6.860, 0.00000, 6.870, 0.00000
6.880, 0.00000, 6.890, 0.00000, 6.900, 0.00000, 6.910, 0.00000
6.920, 0.00000, 6.930, 0.00000, 6.940, 0.00000, 6.950, 0.00000
6.960, 0.00000, 6.970, 0.00000, 6.980, 0.00000, 6.990, 0.00000
7.000, 0.00000, 7.010, 0.00000, 7.020, 0.00000, 7.030, 0.00000
7.040, 0.00000, 7.050, 0.00000, 7.060, 0.00000, 7.070, 0.00000
7.080, 0.00000, 7.090, 0.00000, 7.100, 0.00000, 7.110, 0.00000
7.120, 0.00000, 7.130, 0.00000, 7.140, 0.00000, 7.150, 0.00000
7.160, 0.00000, 7.170, 0.00000, 7.180, 0.00000, 7.190, 0.00000
7.200, 0.00000, 7.210, 0.00000, 7.220, 0.00000, 7.230, 0.00000
7.240, 0.00000, 7.250, 0.00000, 7.260, 0.00000, 7.270, 0.00000
7.280, 0.00000, 7.290, 0.00000, 7.300, 0.00000, 7.310, 0.00000
7.320, 0.00000, 7.330, 0.00000, 7.340, 0.00000, 7.350, 0.00000
7.360, 0.00000, 7.370, 0.00000, 7.380, 0.00000, 7.390, 0.00000
7.400, 0.00000, 7.410, 0.00000, 7.420, 0.00000, 7.430, 0.00000
7.440, 0.00000, 7.450, 0.00000, 7.460, 0.00000, 7.470, 0.00000
7.480, 0.00000, 7.490, 0.00000, 7.500, 0.00000, 7.510, 0.00000
7.520, 0.00000, 7.530, 0.00000, 7.540, 0.00000, 7.550, 0.00000
7.560, 0.00000, 7.570, 0.00000, 7.580, 0.00000, 7.590, 0.00000
7.600, 0.00000, 7.610, 0.00000, 7.620, 0.00000, 7.630, 0.00000
7.640, 0.00000, 7.650, 0.00000, 7.660, 0.00000, 7.670, 0.00000
7.680, 0.00000, 7.690, 0.00000, 7.700, 0.00000, 7.710, 0.00000
7.720, 0.00000, 7.730, 0.00000, 7.740, 0.00000, 7.750, 0.00000
7.760, 0.00000, 7.770, 0.00000, 7.780, 0.00000, 7.790, 0.00000
7.800, 0.00000, 7.810, 0.00000, 7.820, 0.00000, 7.830, 0.00000
7.840, 0.00000, 7.850, 0.00000, 7.860, 0.00000, 7.870, 0.00000
7.880, 0.00000, 7.890, 0.00000, 7.900, 0.00000, 7.910, 0.00000
7.920, 0.00000, 7.930, 0.00000, 7.940, 0.00000, 7.950, 0.00000
7.960, 0.00000, 7.970, 0.00000, 7.980, 0.00000, 7.990, 0.00000
8.000, 0.00000, 8.010, 11.88038, 8.020, 23.76075, 8.030, 35.64113
8.040, 47.52150, 8.050, 59.40188, 8.060, 56.43179, 8.070, 53.46169
8.080, 50.49160, 8.090, 47.52150, 8.100, 44.55141, 8.110, 41.58132
8.120, 38.61122, 8.130, 35.64113, 8.140, 32.67103, 8.150, 29.70094
8.160, 26.73085, 8.170, 23.76075, 8.180, 20.79066, 8.190, 17.82056
8.200, 14.85047, 8.210, 11.88038, 8.220, 8.91028, 8.230, 5.94019
8.240, 2.97009, 8.250, 0.00000, 8.260, 0.00000, 8.270, 0.00000
8.280, 0.00000, 8.290, 0.00000, 8.300, 0.00000, 8.310, 0.00000
8.320, 0.00000, 8.330, 0.00000, 8.340, 0.00000, 8.350, 0.00000
8.360, 0.00000, 8.370, 0.00000, 8.380, 0.00000, 8.390, 0.00000
8.400, 0.00000, 8.410, 0.00000, 8.420, 0.00000, 8.430, 0.00000
8.440, 0.00000, 8.450, 0.00000, 8.460, 0.00000, 8.470, 0.00000
8.480, 0.00000, 8.490, 0.00000, 8.500, 0.00000, 8.510, 0.00000
8.520, 0.00000, 8.530, 0.00000, 8.540, 0.00000, 8.550, 0.00000
8.560, 0.00000, 8.570, 0.00000, 8.580, 0.00000, 8.590, 0.00000
8.600, 0.00000, 8.610, 0.00000, 8.620, 0.00000, 8.630, 0.00000
8.640, 0.00000, 8.650, 0.00000, 8.660, 0.00000, 8.670, 0.00000
8.680, 0.00000, 8.690, 0.00000, 8.700, 0.00000, 8.710, 0.00000
8.720, 0.00000, 8.730, 0.00000, 8.740, 0.00000, 8.750, 0.00000
8.760, 0.00000, 8.770, 0.00000, 8.780, 0.00000, 8.790, 0.00000
8.800, 0.00000, 8.810, 0.00000, 8.820, 0.00000, 8.830, 0.00000
8.840, 0.00000, 8.850, 0.00000, 8.860, 0.00000, 8.870, 0.00000
8.880, 0.00000, 8.890, 0.00000, 8.900, 0.00000, 8.910, 0.00000
8.920, 0.00000, 8.930, 0.00000, 8.940, 0.00000, 8.950, 0.00000
8.960, 0.00000, 8.970, 0.00000, 8.980, 0.00000, 8.990, 0.00000
9.000, 0.00000, 9.010, 0.00000, 9.020, 0.00000, 9.030, 0.00000
9.040, 0.00000, 9.050, 0.00000, 9.060, 0.00000, 9.070, 0.00000
9.080, 0.00000, 9.090, 0.00000, 9.100, 0.00000, 9.110, 0.00000
9.120, 0.00000, 9.130, 0.00000, 9.140, 0.00000, 9.150, 0.00000
9.160, 0.00000, 9.170, 0.00000, 9.180, 0.00000, 9.190, 0.00000
9.200, 0.00000, 9.210, 0.00000, 9.220, 0.00000, 9.230, 0.00000
9.240, 0.00000, 9.250, 0.00000, 9.260, 0.00000, 9.270, 0.00000
9.280, 0.00000, 9.290, 0.00000, 9.300, 0.00000, 9.310, 0.00000
9.320, 0.00000, 9.330, 0.00000, 9.340, 0.00000, 9.350, 0.00000
9.360, 0.00000, 9.370, 0.00000, 9.380, 0.00000, 9.390, 0.00000
9.400, 0.00000, 9.410, 0.00000, 9.420, 0.00000, 9.430, 0.00000
9.440, 0.00000, 9.450, 0.00000, 9.460, 0.00000, 9.470, 0.00000
9.480, 0.00000, 9.490, 0.00000, 9.500, 0.00000, 9.510, 0.00000
9.520, 0.00000, 9.530, 0.00000, 9.540, 0.00000, 9.550, 0.00000
9.560, 0.00000, 9.570, 0.00000, 9.580, 0.00000, 9.590, 0.00000
9.600, 0.00000, 9.610, 0.00000, 9.620, 0.00000, 9.630, 0.00000
9.640, 0.00000, 9.650, 0.00000, 9.660, 0.00000, 9.670, 0.00000
9.680, 0.00000, 9.690, 0.00000, 9.700, 0.00000, 9.710, 0.00000
9.720, 0.00000, 9.730, 0.00000, 9.740, 0.00000, 9.750, 0.00000
9.760, 0.00000, 9.770, 0.00000, 9.780, 0.00000, 9.790, 0.00000
9.800, 0.00000, 9.810, 0.00000, 9.820, 0.00000, 9.830, 0.00000
9.840, 0.00000, 9.850, 0.00000, 9.860, 0.00000, 9.870, 0.00000
9.880, 0.00000, 9.890, 0.00000, 9.900, 0.00000, 9.910, 0.00000
9.920, 0.00000, 9.930, 0.00000, 9.940, 0.00000, 9.950, 0.00000
9.960, 0.00000, 9.970, 0.00000, 9.980, 0.00000, 9.990, 0.00000
*AMPLITUDE, NAME=ROW2
0.000, 0.00000, 0.010, 52.17935, 0.020, 104.35870, 0.030, 156.53805
0.040, 208.71739, 0.050, 260.89674, 0.060, 247.85191, 0.070, 234.80707
0.080, 221.76223, 0.090, 208.71739, 0.100, 195.67256, 0.110, 182.62772
0.120, 169.58288, 0.130, 156.53805, 0.140, 143.49321, 0.150, 130.44837
0.160, 117.40353, 0.170, 104.35870, 0.180, 91.31386, 0.190, 78.26902
0.200, 65.22419, 0.210, 52.17935, 0.220, 39.13451, 0.230, 26.08967
0.240, 13.04484, 0.250, 0.00000, 0.260, 0.00000, 0.270, 0.00000
0.280, 0.00000, 0.290, 0.00000, 0.300, 0.00000, 0.310, 0.00000
0.320, 0.00000, 0.330, 0.00000, 0.340, 0.00000, 0.350, 0.00000
0.360, 0.00000, 0.370, 0.00000, 0.380, 0.00000, 0.390, 0.00000
0.400, 0.00000, 0.410, 0.00000, 0.420, 0.00000, 0.430, 0.00000
0.440, 0.00000, 0.450, 0.00000, 0.460, 0.00000, 0.470, 0.00000
0.480, 0.00000, 0.490, 0.00000, 0.500, 0.00000, 0.510, 0.00000
0.520, 0.00000, 0.530, 0.00000, 0.540, 0.00000, 0.550, 0.00000
0.560, 0.00000, 0.570, 0.00000, 0.580, 0.00000, 0.590, 0.00000
0.600, 0.00000, 0.610, 0.00000, 0.620, 0.00000, 0.630, 0.00000
0.640, 0.00000, 0.650, 0.00000, 0.660, 0.00000, 0.670, 0.00000
0.680, 0.00000, 0.690, 0.00000, 0.700, 0.00000, 0.710, 0.00000
0.720, 0.00000, 0.730, 0.00000, 0.740, 0.00000, 0.750, 0.00000
0.760, 0.00000, 0.770, 0.00000, 0.780, 0.00000, 0.790, 0.00000
0.800, 0.00000, 0.810, 0.00000, 0.820, 0.00000, 0.830, 0.00000
0.840, 0.00000, 0.850, 0.00000, 0.860, 0.00000, 0.870, 0.00000
0.880, 0.00000, 0.890, 0.00000, 0.900, 0.00000, 0.910, 0.00000
0.920, 0.00000, 0.930, 0.00000, 0.940, 0.00000, 0.950, 0.00000
0.960, 0.00000, 0.970, 0.00000, 0.980, 0.00000, 0.990, 0.00000
1.000, 0.00000, 1.010, 0.00000, 1.020, 0.00000, 1.030, 0.00000
1.040, 0.00000, 1.050, 0.00000, 1.060, 0.00000, 1.070, 0.00000
1.080, 0.00000, 1.090, 0.00000, 1.100, 0.00000, 1.110, 0.00000
1.120, 0.00000, 1.130, 0.00000, 1.140, 0.00000, 1.150, 0.00000
1.160, 0.00000, 1.170, 0.00000, 1.180, 0.00000, 1.190, 0.00000
1.200, 0.00000, 1.210, 0.00000, 1.220, 0.00000, 1.230, 0.00000
1.240, 0.00000, 1.250, 0.00000, 1.260, 0.00000, 1.270, 0.00000
1.280, 0.00000, 1.290, 0.00000, 1.300, 0.00000, 1.310, 0.00000
1.320, 0.00000, 1.330, 0.00000, 1.340, 0.00000, 1.350, 0.00000
1.360, 0.00000, 1.370, 0.00000, 1.380, 0.00000, 1.390, 0.00000
1.400, 0.00000, 1.410, 0.00000, 1.420, 0.00000, 1.430, 0.00000
1.440, 0.00000, 1.450, 0.00000, 1.460, 0.00000, 1.470, 0.00000
1.480, 0.00000, 1.490, 0.00000, 1.500, 0.00000, 1.510, 0.00000
1.520, 0.00000, 1.530, 0.00000, 1.540, 0.00000, 1.550, 0.00000
1.560, 0.00000, 1.570, 0.00000, 1.580, 0.00000, 1.590, 0.00000
1.600, 0.00000, 1.610, 0.00000, 1.620, 0.00000, 1.630, 0.00000
1.640, 0.00000, 1.650, 0.00000, 1.660, 0.00000, 1.670, 0.00000
1.680, 0.00000, 1.690, 0.00000, 1.700, 0.00000, 1.710, 0.00000
1.720, 0.00000, 1.730, 0.00000, 1.740, 0.00000, 1.750, 0.00000
1.760, 0.00000, 1.770, 0.00000, 1.780, 0.00000, 1.790, 0.00000
1.800, 0.00000, 1.810, 0.00000, 1.820, 0.00000, 1.830, 0.00000
1.840, 0.00000, 1.850, 0.00000, 1.860, 0.00000, 1.870, 0.00000
1.880, 0.00000, 1.890, 0.00000, 1.900, 0.00000, 1.910, 0.00000
1.920, 0.00000, 1.930, 0.00000, 1.940, 0.00000, 1.950, 0.00000
1.960, 0.00000, 1.970, 0.00000, 1.980, 0.00000, 1.990, 0.00000
2.000, 0.00000, 2.010, 39.59990, 2.020, 79.19979, 2.030, 118.79969
2.040, 158.39959, 2.050, 197.99948, 2.060, 188.09951, 2.070, 178.19954
2.080, 168.29956, 2.090, 158.39959, 2.100, 148.49961, 2.110, 138.59964
2.120, 128.69966, 2.130, 118.79969, 2.140, 108.89972, 2.150, 98.99974
2.160, 89.09977, 2.170, 79.19979, 2.180, 69.29982, 2.190, 59.39985
2.200, 49.49987, 2.210, 39.59990, 2.220, 29.69992, 2.230, 19.79995
2.240, 9.89997, 2.250, 0.00000, 2.260, 0.00000, 2.270, 0.00000
2.280, 0.00000, 2.290, 0.00000, 2.300, 0.00000, 2.310, 0.00000
2.320, 0.00000, 2.330, 0.00000, 2.340, 0.00000, 2.350, 0.00000
2.360, 0.00000, 2.370, 0.00000, 2.380, 0.00000, 2.390, 0.00000
2.400, 0.00000, 2.410, 0.00000, 2.420, 0.00000, 2.430, 0.00000
2.440, 0.00000, 2.450, 0.00000, 2.460, 0.00000, 2.470, 0.00000
2.480, 0.00000, 2.490, 0.00000, 2.500, 0.00000, 2.510, 0.00000
2.520, 0.00000, 2.530, 0.00000, 2.540, 0.00000, 2.550, 0.00000
2.560, 0.00000, 2.570, 0.00000, 2.580, 0.00000, 2.590, 0.00000
2.600, 0.00000, 2.610, 0.00000, 2.620, 0.00000, 2.630, 0.00000
2.640, 0.00000, 2.650, 0.00000, 2.660, 0.00000, 2.670, 0.00000
2.680, 0.00000, 2.690, 0.00000, 2.700, 0.00000, 2.710, 0.00000
2.720, 0.00000, 2.730, 0.00000, 2.740, 0.00000, 2.750, 0.00000
2.760, 0.00000, 2.770, 0.00000, 2.780, 0.00000, 2.790, 0.00000
2.800, 0.00000, 2.810, 0.00000, 2.820, 0.00000, 2.830, 0.00000
2.840, 0.00000, 2.850, 0.00000, 2.860, 0.00000, 2.870, 0.00000
2.880, 0.00000, 2.890, 0.00000, 2.900, 0.00000, 2.910, 0.00000
2.920, 0.00000, 2.930, 0.00000, 2.940, 0.00000, 2.950, 0.00000
2.960, 0.00000, 2.970, 0.00000, 2.980, 0.00000, 2.990, 0.00000
3.000, 0.00000, 3.010, 0.00000, 3.020, 0.00000, 3.030, 0.00000
3.040, 0.00000, 3.050, 0.00000, 3.060, 0.00000, 3.070, 0.00000
3.080, 0.00000, 3.090, 0.00000, 3.100, 0.00000, 3.110, 0.00000
3.120, 0.00000, 3.130, 0.00000, 3.140, 0.00000, 3.150, 0.00000
3.160, 0.00000, 3.170, 0.00000, 3.180, 0.00000, 3.190, 0.00000
3.200, 0.00000, 3.210, 0.00000, 3.220, 0.00000, 3.230, 0.00000
3.240, 0.00000, 3.250, 0.00000, 3.260, 0.00000, 3.270, 0.00000
3.280, 0.00000, 3.290, 0.00000, 3.300, 0.00000, 3.310, 0.00000
3.320, 0.00000, 3.330, 0.00000, 3.340, 0.00000, 3.350, 0.00000
3.360, 0.00000, 3.370, 0.00000, 3.380, 0.00000, 3.390, 0.00000
3.400, 0.00000, 3.410, 0.00000, 3.420, 0.00000, 3.430, 0.00000
3.440, 0.00000, 3.450, 0.00000, 3.460, 0.00000, 3.470, 0.00000
3.480, 0.00000, 3.490, 0.00000, 3.500, 0.00000, 3.510, 0.00000
3.520, 0.00000, 3.530, 0.00000, 3.540, 0.00000, 3.550, 0.00000
3.560, 0.00000, 3.570, 0.00000, 3.580, 0.00000, 3.590, 0.00000
3.600, 0.00000, 3.610, 0.00000, 3.620, 0.00000, 3.630, 0.00000
3.640, 0.00000, 3.650, 0.00000, 3.660, 0.00000, 3.670, 0.00000
3.680, 0.00000, 3.690, 0.00000, 3.700, 0.00000, 3.710, 0.00000
3.720, 0.00000, 3.730, 0.00000, 3.740, 0.00000, 3.750, 0.00000
3.760, 0.00000, 3.770, 0.00000, 3.780, 0.00000, 3.790, 0.00000
3.800, 0.00000, 3.810, 0.00000, 3.820, 0.00000, 3.830, 0.00000
3.840, 0.00000, 3.850, 0.00000, 3.860, 0.00000, 3.870, 0.00000
3.880, 0.00000, 3.890, 0.00000, 3.900, 0.00000, 3.910, 0.00000
3.920, 0.00000, 3.930, 0.00000, 3.940, 0.00000, 3.950, 0.00000
3.960, 0.00000, 3.970, 0.00000, 3.980, 0.00000, 3.990, 0.00000
4.000, 0.00000, 4.010, 33.42610, 4.020, 66.85220, 4.030, 100.27830
4.040, 133.70441, 4.050, 167.13051, 4.060, 158.77398, 4.070, 150.41746
4.080, 142.06093, 4.090, 133.70441, 4.100, 125.34788, 4.110, 116.99135
4.120, 108.63483, 4.130, 100.27830, 4.140, 91.92178, 4.150, 83.56525
4.160, 75.20873, 4.170, 66.85220, 4.180, 58.49568, 4.190, 50.13915
4.200, 41.78263, 4.210, 33.42610, 4.220, 25.06958, 4.230, 16.71305
4.240, 8.35653, 4.250, 0.00000, 4.260, 0.00000, 4.270, 0.00000
4.280, 0.00000, 4.290, 0.00000, 4.300, 0.00000, 4.310, 0.00000
4.320, 0.00000, 4.330, 0.00000, 4.340, 0.00000, 4.350, 0.00000
4.360, 0.00000, 4.370, 0.00000, 4.380, 0.00000, 4.390, 0.00000
4.400, 0.00000, 4.410, 0.00000, 4.420, 0.00000, 4.430, 0.00000
4.440, 0.00000, 4.450, 0.00000, 4.460, 0.00000, 4.470, 0.00000
4.480, 0.00000, 4.490, 0.00000, 4.500, 0.00000, 4.510, 0.00000
4.520, 0.00000, 4.530, 0.00000, 4.540, 0.00000, 4.550, 0.00000
4.560, 0.00000, 4.570, 0.00000, 4.580, 0.00000, 4.590, 0.00000
4.600, 0.00000, 4.610, 0.00000, 4.620, 0.00000, 4.630, 0.00000
4.640, 0.00000, 4.650, 0.00000, 4.660, 0.00000, 4.670, 0.00000
4.680, 0.00000, 4.690, 0.00000, 4.700, 0.00000, 4.710, 0.00000
4.720, 0.00000, 4.730, 0.00000, 4.740, 0.00000, 4.750, 0.00000
4.760, 0.00000, 4.770, 0.00000, 4.780, 0.00000, 4.790, 0.00000
4.800, 0.00000, 4.810, 0.00000, 4.820, 0.00000, 4.830, 0.00000
4.840, 0.00000, 4.850, 0.00000, 4.860, 0.00000, 4.870, 0.00000
4.880, 0.00000, 4.890, 0.00000, 4.900, 0.00000, 4.910, 0.00000
4.920, 0.00000, 4.930, 0.00000, 4.940, 0.00000, 4.950, 0.00000
4.960, 0.00000, 4.970, 0.00000, 4.980, 0.00000, 4.990, 0.00000
5.000, 0.00000, 5.010, 0.00000, 5.020, 0.00000, 5.030, 0.00000
5.040, 0.00000, 5.050, 0.00000, 5.060, 0.00000, 5.070, 0.00000
5.080, 0.00000, 5.090, 0.00000, 5.100, 0.00000, 5.110, 0.00000
5.120, 0.00000, 5.130, 0.00000, 5.140, 0.00000, 5.150, 0.00000
5.160, 0.00000, 5.170, 0.00000, 5.180, 0.00000, 5.190, 0.00000
5.200, 0.00000, 5.210, 0.00000, 5.220, 0.00000, 5.230, 0.00000
5.240, 0.00000, 5.250, 0.00000, 5.260, 0.00000, 5.270, 0.00000
5.280, 0.00000, 5.290, 0.00000, 5.300, 0.00000, 5.310, 0.00000
5.320, 0.00000, 5.330, 0.00000, 5.340, 0.00000, 5.350, 0.00000
5.360, 0.00000, 5.370, 0.00000, 5.380, 0.00000, 5.390, 0.00000
5.400, 0.00000, 5.410, 0.00000, 5.420, 0.00000, 5.430, 0.00000
5.440, 0.00000, 5.450, 0.00000, 5.460, 0.00000, 5.470, 0.00000
5.480, 0.00000, 5.490, 0.00000, 5.500, 0.00000, 5.510, 0.00000
5.520, 0.00000, 5.530, 0.00000, 5.540, 0.00000, 5.550, 0.00000
5.560, 0.00000, 5.570, 0.00000, 5.580, 0.00000, 5.590, 0.00000
5.600, 0.00000, 5.610, 0.00000, 5.620, 0.00000, 5.630, 0.00000
5.640, 0.00000, 5.650, 0.00000, 5.660, 0.00000, 5.670, 0.00000
5.680, 0.00000, 5.690, 0.00000, 5.700, 0.00000, 5.710, 0.00000
5.720, 0.00000, 5.730, 0.00000, 5.740, 0.00000, 5.750, 0.00000
5.760, 0.00000, 5.770, 0.00000, 5.780, 0.00000, 5.790, 0.00000
5.800, 0.00000, 5.810, 0.00000, 5.820, 0.00000, 5.830, 0.00000
5.840, 0.00000, 5.850, 0.00000, 5.860, 0.00000, 5.870, 0.00000
5.880, 0.00000, 5.890, 0.00000, 5.900, 0.00000, 5.910, 0.00000
5.920, 0.00000, 5.930, 0.00000, 5.940, 0.00000, 5.950, 0.00000
5.960, 0.00000, 5.970, 0.00000, 5.980, 0.00000, 5.990, 0.00000
6.000, 0.00000, 6.010, 29.51876, 6.020, 59.03753, 6.030, 88.55629
6.040, 118.07505, 6.050, 147.59382, 6.060, 140.21413, 6.070, 132.83444
6.080, 125.45475, 6.090, 118.07505, 6.100, 110.69536, 6.110, 103.31567
6.120, 95.93598, 6.130, 88.55629, 6.140, 81.17660, 6.150, 73.79691
6.160, 66.41722, 6.170, 59.03753, 6.180, 51.65784, 6.190, 44.27815
6.200, 36.89845, 6.210, 29.51876, 6.220, 22.13907, 6.230, 14.75938
6.240, 7.37969, 6.250, 0.00000, 6.260, 0.00000, 6.270, 0.00000
6.280, 0.00000, 6.290, 0.00000, 6.300, 0.00000, 6.310, 0.00000
6.320, 0.00000, 6.330, 0.00000, 6.340, 0.00000, 6.350, 0.00000
6.360, 0.00000, 6.370, 0.00000, 6.380, 0.00000, 6.390, 0.00000
6.400, 0.00000, 6.410, 0.00000, 6.420, 0.00000, 6.430, 0.00000
6.440, 0.00000, 6.450, 0.00000, 6.460, 0.00000, 6.470, 0.00000
6.480, 0.00000, 6.490, 0.00000, 6.500, 0.00000, 6.510, 0.00000
6.520, 0.00000, 6.530, 0.00000, 6.540, 0.00000, 6.550, 0.00000
6.560, 0.00000, 6.570, 0.00000, 6.580, 0.00000, 6.590, 0.00000
6.600, 0.00000, 6.610, 0.00000, 6.620, 0.00000, 6.630, 0.00000
6.640, 0.00000, 6.650, 0.00000, 6.660, 0.00000, 6.670, 0.00000
6.680, 0.00000, 6.690, 0.00000, 6.700, 0.00000, 6.710, 0.00000
6.720, 0.00000, 6.730, 0.00000, 6.740, 0.00000, 6.750, 0.00000
6.760, 0.00000, 6.770, 0.00000, 6.780, 0.00000, 6.790, 0.00000
6.800, 0.00000, 6.810, 0.00000, 6.820, 0.00000, 6.830, 0.00000
6.840, 0.00000, 6.850, 0.00000, 6.860, 0.00000, 6.870, 0.00000
6.880, 0.00000, 6.890, 0.00000, 6.900, 0.00000, 6.910, 0.00000
6.920, 0.00000, 6.930, 0.00000, 6.940, 0.00000, 6.950, 0.00000
6.960, 0.00000, 6.970, 0.00000, 6.980, 0.00000, 6.990, 0.00000
7.000, 0.00000, 7.010, 0.00000, 7.020, 0.00000, 7.030, 0.00000
7.040, 0.00000, 7.050, 0.00000, 7.060, 0.00000, 7.070, 0.00000
7.080, 0.00000, 7.090, 0.00000, 7.100, 0.00000, 7.110, 0.00000
7.120, 0.00000, 7.130, 0.00000, 7.140, 0.00000, 7.150, 0.00000
7.160, 0.00000, 7.170, 0.00000, 7.180, 0.00000, 7.190, 0.00000
7.200, 0.00000, 7.210, 0.00000, 7.220, 0.00000, 7.230, 0.00000
7.240, 0.00000, 7.250, 0.00000, 7.260, 0.00000, 7.270, 0.00000
7.280, 0.00000, 7.290, 0.00000, 7.300, 0.00000, 7.310, 0.00000
7.320, 0.00000, 7.330, 0.00000, 7.340, 0.00000, 7.350, 0.00000
7.360, 0.00000, 7.370, 0.00000, 7.380, 0.00000, 7.390, 0.00000
7.400, 0.00000, 7.410, 0.00000, 7.420, 0.00000, 7.430, 0.00000
7.440, 0.00000, 7.450, 0.00000, 7.460, 0.00000, 7.470, 0.00000
7.480, 0.00000, 7.490, 0.00000, 7.500, 0.00000, 7.510, 0.00000
7.520, 0.00000, 7.530, 0.00000, 7.540, 0.00000, 7.550, 0.00000
7.560, 0.00000, 7.570, 0.00000, 7.580, 0.00000, 7.590, 0.00000
7.600, 0.00000, 7.610, 0.00000, 7.620, 0.00000, 7.630, 0.00000
7.640, 0.00000, 7.650, 0.00000, 7.660, 0.00000, 7.670, 0.00000
7.680, 0.00000, 7.690, 0.00000, 7.700, 0.00000, 7.710, 0.00000
7.720, 0.00000, 7.730, 0.00000, 7.740, 0.00000, 7.750, 0.00000
7.760, 0.00000, 7.770, 0.00000, 7.780, 0.00000, 7.790, 0.00000
7.800, 0.00000, 7.810, 0.00000, 7.820, 0.00000, 7.830, 0.00000
7.840, 0.00000, 7.850, 0.00000, 7.860, 0.00000, 7.870, 0.00000
7.880, 0.00000, 7.890, 0.00000, 7.900, 0.00000, 7.910, 0.00000
7.920, 0.00000, 7.930, 0.00000, 7.940, 0.00000, 7.950, 0.00000
7.960, 0.00000, 7.970, 0.00000, 7.980, 0.00000, 7.990, 0.00000
8.000, 0.00000, 8.010, 26.73480, 8.020, 53.46960, 8.030, 80.20440
8.040, 106.93920, 8.050, 133.67400, 8.060, 126.99030, 8.070, 120.30660
8.080, 113.62290, 8.090, 106.93920, 8.100, 100.25550, 8.110, 93.57180
8.120, 86.88810, 8.130, 80.20440, 8.140, 73.52070, 8.150, 66.83700
8.160, 60.15330, 8.170, 53.46960, 8.180, 46.78590, 8.190, 40.10220
8.200, 33.41850, 8.210, 26.73480, 8.220, 20.05110, 8.230, 13.36740
8.240, 6.68370, 8.250, 0.00000, 8.260, 0.00000, 8.270, 0.00000
8.280, 0.00000, 8.290, 0.00000, 8.300, 0.00000, 8.310, 0.00000
8.320, 0.00000, 8.330, 0.00000, 8.340, 0.00000, 8.350, 0.00000
8.360, 0.00000, 8.370, 0.00000, 8.380, 0.00000, 8.390, 0.00000
8.400, 0.00000, 8.410, 0.00000, 8.420, 0.00000, 8.430, 0.00000
8.440, 0.00000, 8.450, 0.00000, 8.460, 0.00000, 8.470, 0.00000
8.480, 0.00000, 8.490, 0.00000, 8.500, 0.00000, 8.510, 0.00000
8.520, 0.00000, 8.530, 0.00000, 8.540, 0.00000, 8.550, 0.00000
8.560, 0.00000, 8.570, 0.00000, 8.580, 0.00000, 8.590, 0.00000
8.600, 0.00000, 8.610, 0.00000, 8.620, 0.00000, 8.630, 0.00000
8.640, 0.00000, 8.650, 0.00000, 8.660, 0.00000, 8.670, 0.00000
8.680, 0.00000, 8.690, 0.00000, 8.700, 0.00000, 8.710, 0.00000
8.720, 0.00000, 8.730, 0.00000, 8.740, 0.00000, 8.750, 0.00000
8.760, 0.00000, 8.770, 0.00000, 8.780, 0.00000, 8.790, 0.00000
8.800, 0.00000, 8.810, 0.00000, 8.820, 0.00000, 8.830, 0.00000
8.840, 0.00000, 8.850, 0.00000, 8.860, 0.00000, 8.870, 0.00000
8.880, 0.00000, 8.890, 0.00000, 8.900, 0.00000, 8.910, 0.00000
8.920, 0.00000, 8.930, 0.00000, 8.940, 0.00000, 8.950, 0.00000
8.960, 0.00000, 8.970, 0.00000, 8.980, 0.00000, 8.990, 0.00000
9.000, 0.00000, 9.010, 0.00000, 9.020, 0.00000, 9.030, 0.00000
9.040, 0.00000, 9.050, 0.00000, 9.060, 0.00000, 9.070, 0.00000
9.080, 0.00000, 9.090, 0.00000, 9.100, 0.00000, 9.110, 0.00000
9.120, 0.00000, 9.130, 0.00000, 9.140, 0.00000, 9.150, 0.00000
9.160, 0.00000, 9.170, 0.00000, 9.180, 0.00000, 9.190, 0.00000
9.200, 0.00000, 9.210, 0.00000, 9.220, 0.00000, 9.230, 0.00000
9.240, 0.00000, 9.250, 0.00000, 9.260, 0.00000, 9.270, 0.00000
9.280, 0.00000, 9.290, 0.00000, 9.300, 0.00000, 9.310, 0.00000
9.320, 0.00000, 9.330, 0.00000, 9.340, 0.00000, 9.350, 0.00000
9.360, 0.00000, 9.370, 0.00000, 9.380, 0.00000, 9.390, 0.00000
9.400, 0.00000, 9.410, 0.00000, 9.420, 0.00000, 9.430, 0.00000
9.440, 0.00000, 9.450, 0.00000, 9.460, 0.00000, 9.470, 0.00000
9.480, 0.00000, 9.490, 0.00000, 9.500, 0.00000, 9.510, 0.00000
9.520, 0.00000, 9.530, 0.00000, 9.540, 0.00000, 9.550, 0.00000
9.560, 0.00000, 9.570, 0.00000, 9.580, 0.00000, 9.590, 0.00000
9.600, 0.00000, 9.610, 0.00000, 9.620, 0.00000, 9.630, 0.00000
9.640, 0.00000, 9.650, 0.00000, 9.660, 0.00000, 9.670, 0.00000
9.680, 0.00000, 9.690, 0.00000, 9.700, 0.00000, 9.710, 0.00000
9.720, 0.00000, 9.730, 0.00000, 9.740, 0.00000, 9.750, 0.00000
9.760, 0.00000, 9.770, 0.00000, 9.780, 0.00000, 9.790, 0.00000
9.800, 0.00000, 9.810, 0.00000, 9.820, 0.00000, 9.830, 0.00000
9.840, 0.00000, 9.850, 0.00000, 9.860, 0.00000, 9.870, 0.00000
9.880, 0.00000, 9.890, 0.00000, 9.900, 0.00000, 9.910, 0.00000
9.920, 0.00000, 9.930, 0.00000, 9.940, 0.00000, 9.950, 0.00000
9.960, 0.00000, 9.970, 0.00000, 9.980, 0.00000, 9.990, 0.00000
*AMPLITUDE, NAME=ROW3
0.000, 0.00000, 0.010, 117.69007, 0.020, 235.38013, 0.030, 353.07020
0.040, 470.76027, 0.050, 588.45033, 0.060, 559.02782, 0.070, 529.60530
0.080, 500.18278, 0.090, 470.76027, 0.100, 441.33775, 0.110, 411.91523
0.120, 382.49272, 0.130, 353.07020, 0.140, 323.64768, 0.150, 294.22517
0.160, 264.80265, 0.170, 235.38013, 0.180, 205.95762, 0.190, 176.53510
0.200, 147.11258, 0.210, 117.69007, 0.220, 88.26755, 0.230, 58.84503
0.240, 29.42252, 0.250, 0.00000, 0.260, 0.00000, 0.270, 0.00000
0.280, 0.00000, 0.290, 0.00000, 0.300, 0.00000, 0.310, 0.00000
0.320, 0.00000, 0.330, 0.00000, 0.340, 0.00000, 0.350, 0.00000
0.360, 0.00000, 0.370, 0.00000, 0.380, 0.00000, 0.390, 0.00000
0.400, 0.00000, 0.410, 0.00000, 0.420, 0.00000, 0.430, 0.00000
0.440, 0.00000, 0.450, 0.00000, 0.460, 0.00000, 0.470, 0.00000
0.480, 0.00000, 0.490, 0.00000, 0.500, 0.00000, 0.510, 0.00000
0.520, 0.00000, 0.530, 0.00000, 0.540, 0.00000, 0.550, 0.00000
0.560, 0.00000, 0.570, 0.00000, 0.580, 0.00000, 0.590, 0.00000
0.600, 0.00000, 0.610, 0.00000, 0.620, 0.00000, 0.630, 0.00000
0.640, 0.00000, 0.650, 0.00000, 0.660, 0.00000, 0.670, 0.00000
0.680, 0.00000, 0.690, 0.00000, 0.700, 0.00000, 0.710, 0.00000
0.720, 0.00000, 0.730, 0.00000, 0.740, 0.00000, 0.750, 0.00000
0.760, 0.00000, 0.770, 0.00000, 0.780, 0.00000, 0.790, 0.00000
0.800, 0.00000, 0.810, 0.00000, 0.820, 0.00000, 0.830, 0.00000
0.840, 0.00000, 0.850, 0.00000, 0.860, 0.00000, 0.870, 0.00000
0.880, 0.00000, 0.890, 0.00000, 0.900, 0.00000, 0.910, 0.00000
0.920, 0.00000, 0.930, 0.00000, 0.940, 0.00000, 0.950, 0.00000
0.960, 0.00000, 0.970, 0.00000, 0.980, 0.00000, 0.990, 0.00000
1.000, 0.00000, 1.010, 0.00000, 1.020, 0.00000, 1.030, 0.00000
1.040, 0.00000, 1.050, 0.00000, 1.060, 0.00000, 1.070, 0.00000
1.080, 0.00000, 1.090, 0.00000, 1.100, 0.00000, 1.110, 0.00000
1.120, 0.00000, 1.130, 0.00000, 1.140, 0.00000, 1.150, 0.00000
1.160, 0.00000, 1.170, 0.00000, 1.180, 0.00000, 1.190, 0.00000
1.200, 0.00000, 1.210, 0.00000, 1.220, 0.00000, 1.230, 0.00000
1.240, 0.00000, 1.250, 0.00000, 1.260, 0.00000, 1.270, 0.00000
1.280, 0.00000, 1.290, 0.00000, 1.300, 0.00000, 1.310, 0.00000
1.320, 0.00000, 1.330, 0.00000, 1.340, 0.00000, 1.350, 0.00000
1.360, 0.00000, 1.370, 0.00000, 1.380, 0.00000, 1.390, 0.00000
1.400, 0.00000, 1.410, 0.00000, 1.420, 0.00000, 1.430, 0.00000
1.440, 0.00000, 1.450, 0.00000, 1.460, 0.00000, 1.470, 0.00000
1.480, 0.00000, 1.490, 0.00000, 1.500, 0.00000, 1.510, 0.00000
1.520, 0.00000, 1.530, 0.00000, 1.540, 0.00000, 1.550, 0.00000
1.560, 0.00000, 1.570, 0.00000, 1.580, 0.00000, 1.590, 0.00000
1.600, 0.00000, 1.610, 0.00000, 1.620, 0.00000, 1.630, 0.00000
1.640, 0.00000, 1.650, 0.00000, 1.660, 0.00000, 1.670, 0.00000
1.680, 0.00000, 1.690, 0.00000, 1.700, 0.00000, 1.710, 0.00000
1.720, 0.00000, 1.730, 0.00000, 1.740, 0.00000, 1.750, 0.00000
1.760, 0.00000, 1.770, 0.00000, 1.780, 0.00000, 1.790, 0.00000
1.800, 0.00000, 1.810, 0.00000, 1.820, 0.00000, 1.830, 0.00000
1.840, 0.00000, 1.850, 0.00000, 1.860, 0.00000, 1.870, 0.00000
1.880, 0.00000, 1.890, 0.00000, 1.900, 0.00000, 1.910, 0.00000
1.920, 0.00000, 1.930, 0.00000, 1.940, 0.00000, 1.950, 0.00000
1.960, 0.00000, 1.970, 0.00000, 1.980, 0.00000, 1.990, 0.00000
2.000, 0.00000, 2.010, 89.31722, 2.020, 178.63444, 2.030, 267.95167
2.040, 357.26889, 2.050, 446.58611, 2.060, 424.25681, 2.070, 401.92750
2.080, 379.59819, 2.090, 357.26889, 2.100, 334.93958, 2.110, 312.61028
2.120, 290.28097, 2.130, 267.95167, 2.140, 245.62236, 2.150, 223.29306
2.160, 200.96375, 2.170, 178.63444, 2.180, 156.30514, 2.190, 133.97583
2.200, 111.64653, 2.210, 89.31722, 2.220, 66.98792, 2.230, 44.65861
2.240, 22.32931, 2.250, 0.00000, 2.260, 0.00000, 2.270, 0.00000
2.280, 0.00000, 2.290, 0.00000, 2.300, 0.00000, 2.310, 0.00000
2.320, 0.00000, 2.330, 0.00000, 2.340, 0.00000, 2.350, 0.00000
2.360, 0.00000, 2.370, 0.00000, 2.380, 0.00000, 2.390, 0.00000
2.400, 0.00000, 2.410, 0.00000, 2.420, 0.00000, 2.430, 0.00000
2.440, 0.00000, 2.450, 0.00000, 2.460, 0.00000, 2.470, 0.00000
2.480, 0.00000, 2.490, 0.00000, 2.500, 0.00000, 2.510, 0.00000
2.520, 0.00000, 2.530, 0.00000, 2.540, 0.00000, 2.550, 0.00000
2.560, 0.00000, 2.570, 0.00000, 2.580, 0.00000, 2.590, 0.00000
2.600, 0.00000, 2.610, 0.00000, 2.620, 0.00000, 2.630, 0.00000
2.640, 0.00000, 2.650, 0.00000, 2.660, 0.00000, 2.670, 0.00000
2.680, 0.00000, 2.690, 0.00000, 2.700, 0.00000, 2.710, 0.00000
2.720, 0.00000, 2.730, 0.00000, 2.740, 0.00000, 2.750, 0.00000
2.760, 0.00000, 2.770, 0.00000, 2.780, 0.00000, 2.790, 0.00000
2.800, 0.00000, 2.810, 0.00000, 2.820, 0.00000, 2.830, 0.00000
2.840, 0.00000, 2.850, 0.00000, 2.860, 0.00000, 2.870, 0.00000
2.880, 0.00000, 2.890, 0.00000, 2.900, 0.00000, 2.910, 0.00000
2.920, 0.00000, 2.930, 0.00000, 2.940, 0.00000, 2.950, 0.00000
2.960, 0.00000, 2.970, 0.00000, 2.980, 0.00000, 2.990, 0.00000
3.000, 0.00000, 3.010, 0.00000, 3.020, 0.00000, 3.030, 0.00000
3.040, 0.00000, 3.050, 0.00000, 3.060, 0.00000, 3.070, 0.00000
3.080, 0.00000, 3.090, 0.00000, 3.100, 0.00000, 3.110, 0.00000
3.120, 0.00000, 3.130, 0.00000, 3.140, 0.00000, 3.150, 0.00000
3.160, 0.00000, 3.170, 0.00000, 3.180, 0.00000, 3.190, 0.00000
3.200, 0.00000, 3.210, 0.00000, 3.220, 0.00000, 3.230, 0.00000
3.240, 0.00000, 3.250, 0.00000, 3.260, 0.00000, 3.270, 0.00000
3.280, 0.00000, 3.290, 0.00000, 3.300, 0.00000, 3.310, 0.00000
3.320, 0.00000, 3.330, 0.00000, 3.340, 0.00000, 3.350, 0.00000
3.360, 0.00000, 3.370, 0.00000, 3.380, 0.00000, 3.390, 0.00000
3.400, 0.00000, 3.410, 0.00000, 3.420, 0.00000, 3.430, 0.00000
3.440, 0.00000, 3.450, 0.00000, 3.460, 0.00000, 3.470, 0.00000
3.480, 0.00000, 3.490, 0.00000, 3.500, 0.00000, 3.510, 0.00000
3.520, 0.00000, 3.530, 0.00000, 3.540, 0.00000, 3.550, 0.00000
3.560, 0.00000, 3.570, 0.00000, 3.580, 0.00000, 3.590, 0.00000
3.600, 0.00000, 3.610, 0.00000, 3.620, 0.00000, 3.630, 0.00000
3.640, 0.00000, 3.650, 0.00000, 3.660, 0.00000, 3.670, 0.00000
3.680, 0.00000, 3.690, 0.00000, 3.700, 0.00000, 3.710, 0.00000
3.720, 0.00000, 3.730, 0.00000, 3.740, 0.00000, 3.750, 0.00000
3.760, 0.00000, 3.770, 0.00000, 3.780, 0.00000, 3.790, 0.00000
3.800, 0.00000, 3.810, 0.00000, 3.820, 0.00000, 3.830, 0.00000
3.840, 0.00000, 3.850, 0.00000, 3.860, 0.00000, 3.870, 0.00000
3.880, 0.00000, 3.890, 0.00000, 3.900, 0.00000, 3.910, 0.00000
3.920, 0.00000, 3.930, 0.00000, 3.940, 0.00000, 3.950, 0.00000
3.960, 0.00000, 3.970, 0.00000, 3.980, 0.00000, 3.990, 0.00000
4.000, 0.00000, 4.010, 75.39228, 4.020, 150.78456, 4.030, 226.17684
4.040, 301.56912, 4.050, 376.96140, 4.060, 358.11333, 4.070, 339.26526
4.080, 320.41719, 4.090, 301.56912, 4.100, 282.72105, 4.110, 263.87298
4.120, 245.02491, 4.130, 226.17684, 4.140, 207.32877, 4.150, 188.48070
4.160, 169.63263, 4.170, 150.78456, 4.180, 131.93649, 4.190, 113.08842
4.200, 94.24035, 4.210, 75.39228, 4.220, 56.54421, 4.230, 37.69614
4.240, 18.84807, 4.250, 0.00000, 4.260, 0.00000, 4.270, 0.00000
4.280, 0.00000, 4.290, 0.00000, 4.300, 0.00000, 4.310, 0.00000
4.320, 0.00000, 4.330, 0.00000, 4.340, 0.00000, 4.350, 0.00000
4.360, 0.00000, 4.370, 0.00000, 4.380, 0.00000, 4.390, 0.00000
4.400, 0.00000, 4.410, 0.00000, 4.420, 0.00000, 4.430, 0.00000
4.440, 0.00000, 4.450, 0.00000, 4.460, 0.00000, 4.470, 0.00000
4.480, 0.00000, 4.490, 0.00000, 4.500, 0.00000, 4.510, 0.00000
4.520, 0.00000, 4.530, 0.00000, 4.540, 0.00000, 4.550, 0.00000
4.560, 0.00000, 4.570, 0.00000, 4.580, 0.00000, 4.590, 0.00000
4.600, 0.00000, 4.610, 0.00000, 4.620, 0.00000, 4.630, 0.00000
4.640, 0.00000, 4.650, 0.00000, 4.660, 0.00000, 4.670, 0.00000
4.680, 0.00000, 4.690, 0.00000, 4.700, 0.00000, 4.710, 0.00000
4.720, 0.00000, 4.730, 0.00000, 4.740, 0.00000, 4.750, 0.00000
4.760, 0.00000, 4.770, 0.00000, 4.780, 0.00000, 4.790, 0.00000
4.800, 0.00000, 4.810, 0.00000, 4.820, 0.00000, 4.830, 0.00000
4.840, 0.00000, 4.850, 0.00000, 4.860, 0.00000, 4.870, 0.00000
4.880, 0.00000, 4.890, 0.00000, 4.900, 0.00000, 4.910, 0.00000
4.920, 0.00000, 4.930, 0.00000, 4.940, 0.00000, 4.950, 0.00000
4.960, 0.00000, 4.970, 0.00000, 4.980, 0.00000, 4.990, 0.00000
5.000, 0.00000, 5.010, 0.00000, 5.020, 0.00000, 5.030, 0.00000
5.040, 0.00000, 5.050, 0.00000, 5.060, 0.00000, 5.070, 0.00000
5.080, 0.00000, 5.090, 0.00000, 5.100, 0.00000, 5.110, 0.00000
5.120, 0.00000, 5.130, 0.00000, 5.140, 0.00000, 5.150, 0.00000
5.160, 0.00000, 5.170, 0.00000, 5.180, 0.00000, 5.190, 0.00000
5.200, 0.00000, 5.210, 0.00000, 5.220, 0.00000, 5.230, 0.00000
5.240, 0.00000, 5.250, 0.00000, 5.260, 0.00000, 5.270, 0.00000
5.280, 0.00000, 5.290, 0.00000, 5.300, 0.00000, 5.310, 0.00000
5.320, 0.00000, 5.330, 0.00000, 5.340, 0.00000, 5.350, 0.00000
5.360, 0.00000, 5.370, 0.00000, 5.380, 0.00000, 5.390, 0.00000
5.400, 0.00000, 5.410, 0.00000, 5.420, 0.00000, 5.430, 0.00000
5.440, 0.00000, 5.450, 0.00000, 5.460, 0.00000, 5.470, 0.00000
5.480, 0.00000, 5.490, 0.00000, 5.500, 0.00000, 5.510, 0.00000
5.520, 0.00000, 5.530, 0.00000, 5.540, 0.00000, 5.550, 0.00000
5.560, 0.00000, 5.570, 0.00000, 5.580, 0.00000, 5.590, 0.00000
5.600, 0.00000, 5.610, 0.00000, 5.620, 0.00000, 5.630, 0.00000
5.640, 0.00000, 5.650, 0.00000, 5.660, 0.00000, 5.670, 0.00000
5.680, 0.00000, 5.690, 0.00000, 5.700, 0.00000, 5.710, 0.00000
5.720, 0.00000, 5.730, 0.00000, 5.740, 0.00000, 5.750, 0.00000
5.760, 0.00000, 5.770, 0.00000, 5.780, 0.00000, 5.790, 0.00000
5.800, 0.00000, 5.810, 0.00000, 5.820, 0.00000, 5.830, 0.00000
5.840, 0.00000, 5.850, 0.00000, 5.860, 0.00000, 5.870, 0.00000
5.880, 0.00000, 5.890, 0.00000, 5.900, 0.00000, 5.910, 0.00000
5.920, 0.00000, 5.930, 0.00000, 5.940, 0.00000, 5.950, 0.00000
5.960, 0.00000, 5.970, 0.00000, 5.980, 0.00000, 5.990, 0.00000
6.000, 0.00000, 6.010, 66.57931, 6.020, 133.15863, 6.030, 199.73794
6.040, 266.31726, 6.050, 332.89657, 6.060, 316.25174, 6.070, 299.60691
6.080, 282.96209, 6.090, 266.31726, 6.100, 249.67243, 6.110, 233.02760
6.120, 216.38277, 6.130, 199.73794, 6.140, 183.09311, 6.150, 166.44829
6.160, 149.80346, 6.170, 133.15863, 6.180, 116.51380, 6.190, 99.86897
6.200, 83.22414, 6.210, 66.57931, 6.220, 49.93449, 6.230, 33.28966
6.240, 16.64483, 6.250, 0.00000, 6.260, 0.00000, 6.270, 0.00000
6.280, 0.00000, 6.290, 0.00000, 6.300, 0.00000, 6.310, 0.00000
6.320, 0.00000, 6.330, 0.00000, 6.340, 0.00000, 6.350, 0.00000
6.360, 0.00000, 6.370, 0.00000, 6.380, 0.00000, 6.390, 0.00000
6.400, 0.00000, 6.410, 0.00000, 6.420, 0.00000, 6.430, 0.00000
6.440, 0.00000, 6.450, 0.00000, 6.460, 0.00000, 6.470, 0.00000
6.480, 0.00000, 6.490, 0.00000, 6.500, 0.00000, 6.510, 0.00000
6.520, 0.00000, 6.530, 0.00000, 6.540, 0.00000, 6.550, 0.00000
6.560, 0.00000, 6.570, 0.00000, 6.580, 0.00000, 6.590, 0.00000
6.600, 0.00000, 6.610, 0.00000, 6.620, 0.00000, 6.630, 0.00000
6.640, 0.00000, 6.650, 0.00000, 6.660, 0.00000, 6.670, 0.00000
6.680, 0.00000, 6.690, 0.00000, 6.700, 0.00000, 6.710, 0.00000
6.720, 0.00000, 6.730, 0.00000, 6.740, 0.00000, 6.750, 0.00000
6.760, 0.00000, 6.770, 0.00000, 6.780, 0.00000, 6.790, 0.00000
6.800, 0.00000, 6.810, 0.00000, 6.820, 0.00000, 6.830, 0.00000
6.840, 0.00000, 6.850, 0.00000, 6.860, 0.00000, 6.870, 0.00000
6.880, 0.00000, 6.890, 0.00000, 6.900, 0.00000, 6.910, 0.00000
6.920, 0.00000, 6.930, 0.00000, 6.940, 0.00000, 6.950, 0.00000
6.960, 0.00000, 6.970, 0.00000, 6.980, 0.00000, 6.990, 0.00000
7.000, 0.00000, 7.010, 0.00000, 7.020, 0.00000, 7.030, 0.00000
7.040, 0.00000, 7.050, 0.00000, 7.060, 0.00000, 7.070, 0.00000
7.080, 0.00000, 7.090, 0.00000, 7.100, 0.00000, 7.110, 0.00000
7.120, 0.00000, 7.130, 0.00000, 7.140, 0.00000, 7.150, 0.00000
7.160, 0.00000, 7.170, 0.00000, 7.180, 0.00000, 7.190, 0.00000
7.200, 0.00000, 7.210, 0.00000, 7.220, 0.00000, 7.230, 0.00000
7.240, 0.00000, 7.250, 0.00000, 7.260, 0.00000, 7.270, 0.00000
7.280, 0.00000, 7.290, 0.00000, 7.300, 0.00000, 7.310, 0.00000
7.320, 0.00000, 7.330, 0.00000, 7.340, 0.00000, 7.350, 0.00000
7.360, 0.00000, 7.370, 0.00000, 7.380, 0.00000, 7.390, 0.00000
7.400, 0.00000, 7.410, 0.00000, 7.420, 0.00000, 7.430, 0.00000
7.440, 0.00000, 7.450, 0.00000, 7.460, 0.00000, 7.470, 0.00000
7.480, 0.00000, 7.490, 0.00000, 7.500, 0.00000, 7.510, 0.00000
7.520, 0.00000, 7.530, 0.00000, 7.540, 0.00000, 7.550, 0.00000
7.560, 0.00000, 7.570, 0.00000, 7.580, 0.00000, 7.590, 0.00000
7.600, 0.00000, 7.610, 0.00000, 7.620, 0.00000, 7.630, 0.00000
7.640, 0.00000, 7.650, 0.00000, 7.660, 0.00000, 7.670, 0.00000
7.680, 0.00000, 7.690, 0.00000, 7.700, 0.00000, 7.710, 0.00000
7.720, 0.00000, 7.730, 0.00000, 7.740, 0.00000, 7.750, 0.00000
7.760, 0.00000, 7.770, 0.00000, 7.780, 0.00000, 7.790, 0.00000
7.800, 0.00000, 7.810, 0.00000, 7.820, 0.00000, 7.830, 0.00000
7.840, 0.00000, 7.850, 0.00000, 7.860, 0.00000, 7.870, 0.00000
7.880, 0.00000, 7.890, 0.00000, 7.900, 0.00000, 7.910, 0.00000
7.920, 0.00000, 7.930, 0.00000, 7.940, 0.00000, 7.950, 0.00000
7.960, 0.00000, 7.970, 0.00000, 7.980, 0.00000, 7.990, 0.00000
8.000, 0.00000, 8.010, 60.30011, 8.020, 120.60022, 8.030, 180.90033
8.040, 241.20044, 8.050, 301.50055, 8.060, 286.42552, 8.070, 271.35049
8.080, 256.27546, 8.090, 241.20044, 8.100, 226.12541, 8.110, 211.05038
8.120, 195.97535, 8.130, 180.90033, 8.140, 165.82530, 8.150, 150.75027
8.160, 135.67525, 8.170, 120.60022, 8.180, 105.52519, 8.190, 90.45016
8.200, 75.37514, 8.210, 60.30011, 8.220, 45.22508, 8.230, 30.15005
8.240, 15.07503, 8.250, 0.00000, 8.260, 0.00000, 8.270, 0.00000
8.280, 0.00000, 8.290, 0.00000, 8.300, 0.00000, 8.310, 0.00000
8.320, 0.00000, 8.330, 0.00000, 8.340, 0.00000, 8.350, 0.00000
8.360, 0.00000, 8.370, 0.00000, 8.380, 0.00000, 8.390, 0.00000
8.400, 0.00000, 8.410, 0.00000, 8.420, 0.00000, 8.430, 0.00000
8.440, 0.00000, 8.450, 0.00000, 8.460, 0.00000, 8.470, 0.00000
8.480, 0.00000, 8.490, 0.00000, 8.500, 0.00000, 8.510, 0.00000
8.520, 0.00000, 8.530, 0.00000, 8.540, 0.00000, 8.550, 0.00000
8.560, 0.00000, 8.570, 0.00000, 8.580, 0.00000, 8.590, 0.00000
8.600, 0.00000, 8.610, 0.00000, 8.620, 0.00000, 8.630, 0.00000
8.640, 0.00000, 8.650, 0.00000, 8.660, 0.00000, 8.670, 0.00000
8.680, 0.00000, 8.690, 0.00000, 8.700, 0.00000, 8.710, 0.00000
8.720, 0.00000, 8.730, 0.00000, 8.740, 0.00000, 8.750, 0.00000
8.760, 0.00000, 8.770, 0.00000, 8.780, 0.00000, 8.790, 0.00000
8.800, 0.00000, 8.810, 0.00000, 8.820, 0.00000, 8.830, 0.00000
8.840, 0.00000, 8.850, 0.00000, 8.860, 0.00000, 8.870, 0.00000
8.880, 0.00000, 8.890, 0.00000, 8.900, 0.00000, 8.910, 0.00000
8.920, 0.00000, 8.930, 0.00000, 8.940, 0.00000, 8.950, 0.00000
8.960, 0.00000, 8.970, 0.00000, 8.980, 0.00000, 8.990, 0.00000
9.000, 0.00000, 9.010, 0.00000, 9.020, 0.00000, 9.030, 0.00000
9.040, 0.00000, 9.050, 0.00000, 9.060, 0.00000, 9.070, 0.00000
9.080, 0.00000, 9.090, 0.00000, 9.100, 0.00000, 9.110, 0.00000
9.120, 0.00000, 9.130, 0.00000, 9.140, 0.00000, 9.150, 0.00000
9.160, 0.00000, 9.170, 0.00000, 9.180, 0.00000, 9.190, 0.00000
9.200, 0.00000, 9.210, 0.00000, 9.220, 0.00000, 9.230, 0.00000
9.240, 0.00000, 9.250, 0.00000, 9.260, 0.00000, 9.270, 0.00000
9.280, 0.00000, 9.290, 0.00000, 9.300, 0.00000, 9.310, 0.00000
9.320, 0.00000, 9.330, 0.00000, 9.340, 0.00000, 9.350, 0.00000
9.360, 0.00000, 9.370, 0.00000, 9.380, 0.00000, 9.390, 0.00000
9.400, 0.00000, 9.410, 0.00000, 9.420, 0.00000, 9.430, 0.00000
9.440, 0.00000, 9.450, 0.00000, 9.460, 0.00000, 9.470, 0.00000
9.480, 0.00000, 9.490, 0.00000, 9.500, 0.00000, 9.510, 0.00000
9.520, 0.00000, 9.530, 0.00000, 9.540, 0.00000, 9.550, 0.00000
9.560, 0.00000, 9.570, 0.00000, 9.580, 0.00000, 9.590, 0.00000
9.600, 0.00000, 9.610, 0.00000, 9.620, 0.00000, 9.630, 0.00000
9.640, 0.00000, 9.650, 0.00000, 9.660, 0.00000, 9.670, 0.00000
9.680, 0.00000, 9.690, 0.00000, 9.700, 0.00000, 9.710, 0.00000
9.720, 0.00000, 9.730, 0.00000, 9.740, 0.00000, 9.750, 0.00000
9.760, 0.00000, 9.770, 0.00000, 9.780, 0.00000, 9.790, 0.00000
9.800, 0.00000, 9.810, 0.00000, 9.820, 0.00000, 9.830, 0.00000
9.840, 0.00000, 9.850, 0.00000, 9.860, 0.00000, 9.870, 0.00000
9.880, 0.00000, 9.890, 0.00000, 9.900, 0.00000, 9.910, 0.00000
9.920, 0.00000, 9.930, 0.00000, 9.940, 0.00000, 9.950, 0.00000
9.960, 0.00000, 9.970, 0.00000, 9.980, 0.00000, 9.990, 0.00000
*AMPLITUDE, NAME=ROW4
0.000, 0.00000, 0.010, 264.84182, 0.020, 529.68363, 0.030, 794.52545
0.040, 1059.36727, 0.050, 1324.20909, 0.060, 1257.99863, 0.070, 1191.78818
0.080, 1125.57772, 0.090, 1059.36727, 0.100, 993.15682, 0.110, 926.94636
0.120, 860.73591, 0.130, 794.52545, 0.140, 728.31500, 0.150, 662.10454
0.160, 595.89409, 0.170, 529.68363, 0.180, 463.47318, 0.190, 397.26273
0.200, 331.05227, 0.210, 264.84182, 0.220, 198.63136, 0.230, 132.42091
0.240, 66.21045, 0.250, 0.00000, 0.260, 0.00000, 0.270, 0.00000
0.280, 0.00000, 0.290, 0.00000, 0.300, 0.00000, 0.310, 0.00000
0.320, 0.00000, 0.330, 0.00000, 0.340, 0.00000, 0.350, 0.00000
0.360, 0.00000, 0.370, 0.00000, 0.380, 0.00000, 0.390, 0.00000
0.400, 0.00000, 0.410, 0.00000, 0.420, 0.00000, 0.430, 0.00000
0.440, 0.00000, 0.450, 0.00000, 0.460, 0.00000, 0.470, 0.00000
0.480, 0.00000, 0.490, 0.00000, 0.500, 0.00000, 0.510, 0.00000
0.520, 0.00000, 0.530, 0.00000, 0.540, 0.00000, 0.550, 0.00000
0.560, 0.00000, 0.570, 0.00000, 0.580, 0.00000, 0.590, 0.00000
0.600, 0.00000, 0.610, 0.00000, 0.620, 0.00000, 0.630, 0.00000
0.640, 0.00000, 0.650, 0.00000, 0.660, 0.00000, 0.670, 0.00000
0.680, 0.00000, 0.690, 0.00000, 0.700, 0.00000, 0.710, 0.00000
0.720, 0.00000, 0.730, 0.00000, 0.740, 0.00000, 0.750, 0.00000
0.760, 0.00000, 0.770, 0.00000, 0.780, 0.00000, 0.790, 0.00000
0.800, 0.00000, 0.810, 0.00000, 0.820, 0.00000, 0.830, 0.00000
0.840, 0.00000, 0.850, 0.00000, 0.860, 0.00000, 0.870, 0.00000
0.880, 0.00000, 0.890, 0.00000, 0.900, 0.00000, 0.910, 0.00000
0.920, 0.00000, 0.930, 0.00000, 0.940, 0.00000, 0.950, 0.00000
0.960, 0.00000, 0.970, 0.00000, 0.980, 0.00000, 0.990, 0.00000
1.000, 0.00000, 1.010, 0.00000, 1.020, 0.00000, 1.030, 0.00000
1.040, 0.00000, 1.050, 0.00000, 1.060, 0.00000, 1.070, 0.00000
1.080, 0.00000, 1.090, 0.00000, 1.100, 0.00000, 1.110, 0.00000
1.120, 0.00000, 1.130, 0.00000, 1.140, 0.00000, 1.150, 0.00000
1.160, 0.00000, 1.170, 0.00000, 1.180, 0.00000, 1.190, 0.00000
1.200, 0.00000, 1.210, 0.00000, 1.220, 0.00000, 1.230, 0.00000
1.240, 0.00000, 1.250, 0.00000, 1.260, 0.00000, 1.270, 0.00000
1.280, 0.00000, 1.290, 0.00000, 1.300, 0.00000, 1.310, 0.00000
1.320, 0.00000, 1.330, 0.00000, 1.340, 0.00000, 1.350, 0.00000
1.360, 0.00000, 1.370, 0.00000, 1.380, 0.00000, 1.390, 0.00000
1.400, 0.00000, 1.410, 0.00000, 1.420, 0.00000, 1.430, 0.00000
1.440, 0.00000, 1.450, 0.00000, 1.460, 0.00000, 1.470, 0.00000
1.480, 0.00000, 1.490, 0.00000, 1.500, 0.00000, 1.510, 0.00000
1.520, 0.00000, 1.530, 0.00000, 1.540, 0.00000, 1.550, 0.00000
1.560, 0.00000, 1.570, 0.00000, 1.580, 0.00000, 1.590, 0.00000
1.600, 0.00000, 1.610, 0.00000, 1.620, 0.00000, 1.630, 0.00000
1.640, 0.00000, 1.650, 0.00000, 1.660, 0.00000, 1.670, 0.00000
1.680, 0.00000, 1.690, 0.00000, 1.700, 0.00000, 1.710, 0.00000
1.720, 0.00000, 1.730, 0.00000, 1.740, 0.00000, 1.750, 0.00000
1.760, 0.00000, 1.770, 0.00000, 1.780, 0.00000, 1.790, 0.00000
1.800, 0.00000, 1.810, 0.00000, 1.820, 0.00000, 1.830, 0.00000
1.840, 0.00000, 1.850, 0.00000, 1.860, 0.00000, 1.870, 0.00000
1.880, 0.00000, 1.890, 0.00000, 1.900, 0.00000, 1.910, 0.00000
1.920, 0.00000, 1.930, 0.00000, 1.940, 0.00000, 1.950, 0.00000
1.960, 0.00000, 1.970, 0.00000, 1.980, 0.00000, 1.990, 0.00000
2.000, 0.00000, 2.010, 200.99348, 2.020, 401.98695, 2.030, 602.98043
2.040, 803.97390, 2.050, 1004.96738, 2.060, 954.71901, 2.070, 904.47064
2.080, 854.22227, 2.090, 803.97390, 2.100, 753.72553, 2.110, 703.47716
2.120, 653.22879, 2.130, 602.98043, 2.140, 552.73206, 2.150, 502.48369
2.160, 452.23532, 2.170, 401.98695, 2.180, 351.73858, 2.190, 301.49021
2.200, 251.24184, 2.210, 200.99348, 2.220, 150.74511, 2.230, 100.49674
2.240, 50.24837, 2.250, 0.00000, 2.260, 0.00000, 2.270, 0.00000
2.280, 0.00000, 2.290, 0.00000, 2.300, 0.00000, 2.310, 0.00000
2.320, 0.00000, 2.330, 0.00000, 2.340, 0.00000, 2.350, 0.00000
2.360, 0.00000, 2.370, 0.00000, 2.380, 0.00000, 2.390, 0.00000
2.400, 0.00000, 2.410, 0.00000, 2.420, 0.00000, 2.430, 0.00000
2.440, 0.00000, 2.450, 0.00000, 2.460, 0.00000, 2.470, 0.00000
2.480, 0.00000, 2.490, 0.00000, 2.500, 0.00000, 2.510, 0.00000
2.520, 0.00000, 2.530, 0.00000, 2.540, 0.00000, 2.550, 0.00000
2.560, 0.00000, 2.570, 0.00000, 2.580, 0.00000, 2.590, 0.00000
2.600, 0.00000, 2.610, 0.00000, 2.620, 0.00000, 2.630, 0.00000
2.640, 0.00000, 2.650, 0.00000, 2.660, 0.00000, 2.670, 0.00000
2.680, 0.00000, 2.690, 0.00000, 2.700, 0.00000, 2.710, 0.00000
2.720, 0.00000, 2.730, 0.00000, 2.740, 0.00000, 2.750, 0.00000
2.760, 0.00000, 2.770, 0.00000, 2.780, 0.00000, 2.790, 0.00000
2.800, 0.00000, 2.810, 0.00000, 2.820, 0.00000, 2.830, 0.00000
2.840, 0.00000, 2.850, 0.00000, 2.860, 0.00000, 2.870, 0.00000
2.880, 0.00000, 2.890, 0.00000, 2.900, 0.00000, 2.910, 0.00000
2.920, 0.00000, 2.930, 0.00000, 2.940, 0.00000, 2.950, 0.00000
2.960, 0.00000, 2.970, 0.00000, 2.980, 0.00000, 2.990, 0.00000
3.000, 0.00000, 3.010, 0.00000, 3.020, 0.00000, 3.030, 0.00000
3.040, 0.00000, 3.050, 0.00000, 3.060, 0.00000, 3.070, 0.00000
3.080, 0.00000, 3.090, 0.00000, 3.100, 0.00000, 3.110, 0.00000
3.120, 0.00000, 3.130, 0.00000, 3.140, 0.00000, 3.150, 0.00000
3.160, 0.00000, 3.170, 0.00000, 3.180, 0.00000, 3.190, 0.00000
3.200, 0.00000, 3.210, 0.00000, 3.220, 0.00000, 3.230, 0.00000
3.240, 0.00000, 3.250, 0.00000, 3.260, 0.00000, 3.270, 0.00000
3.280, 0.00000, 3.290, 0.00000, 3.300, 0.00000, 3.310, 0.00000
3.320, 0.00000, 3.330, 0.00000, 3.340, 0.00000, 3.350, 0.00000
3.360, 0.00000, 3.370, 0.00000, 3.380, 0.00000, 3.390, 0.00000
3.400, 0.00000, 3.410, 0.00000, 3.420, 0.00000, 3.430, 0.00000
3.440, 0.00000, 3.450, 0.00000, 3.460, 0.00000, 3.470, 0.00000
3.480, 0.00000, 3.490, 0.00000, 3.500, 0.00000, 3.510, 0.00000
3.520, 0.00000, 3.530, 0.00000, 3.540, 0.00000, 3.550, 0.00000
3.560, 0.00000, 3.570, 0.00000, 3.580, 0.00000, 3.590, 0.00000
3.600, 0.00000, 3.610, 0.00000, 3.620, 0.00000, 3.630, 0.00000
3.640, 0.00000, 3.650, 0.00000, 3.660, 0.00000, 3.670, 0.00000
3.680, 0.00000, 3.690, 0.00000, 3.700, 0.00000, 3.710, 0.00000
3.720, 0.00000, 3.730, 0.00000, 3.740, 0.00000, 3.750, 0.00000
3.760, 0.00000, 3.770, 0.00000, 3.780, 0.00000, 3.790, 0.00000
3.800, 0.00000, 3.810, 0.00000, 3.820, 0.00000, 3.830, 0.00000
3.840, 0.00000, 3.850, 0.00000, 3.860, 0.00000, 3.870, 0.00000
3.880, 0.00000, 3.890, 0.00000, 3.900, 0.00000, 3.910, 0.00000
3.920, 0.00000, 3.930, 0.00000, 3.940, 0.00000, 3.950, 0.00000
3.960, 0.00000, 3.970, 0.00000, 3.980, 0.00000, 3.990, 0.00000
4.000, 0.00000, 4.010, 169.65772, 4.020, 339.31544, 4.030, 508.97316
4.040, 678.63089, 4.050, 848.28861, 4.060, 805.87418, 4.070, 763.45975
4.080, 721.04532, 4.090, 678.63089, 4.100, 636.21646, 4.110, 593.80202
4.120, 551.38759, 4.130, 508.97316, 4.140, 466.55873, 4.150, 424.14430
4.160, 381.72987, 4.170, 339.31544, 4.180, 296.90101, 4.190, 254.48658
4.200, 212.07215, 4.210, 169.65772, 4.220, 127.24329, 4.230, 84.82886
4.240, 42.41443, 4.250, 0.00000, 4.260, 0.00000, 4.270, 0.00000
4.280, 0.00000, 4.290, 0.00000, 4.300, 0.00000, 4.310, 0.00000
4.320, 0.00000, 4.330, 0.00000, 4.340, 0.00000, 4.350, 0.00000
4.360, 0.00000, 4.370, 0.00000, 4.380, 0.00000, 4.390, 0.00000
4.400, 0.00000, 4.410, 0.00000, 4.420, 0.00000, 4.430, 0.00000
4.440, 0.00000, 4.450, 0.00000, 4.460, 0.00000, 4.470, 0.00000
4.480, 0.00000, 4.490, 0.00000, 4.500, 0.00000, 4.510, 0.00000
4.520, 0.00000, 4.530, 0.00000, 4.540, 0.00000, 4.550, 0.00000
4.560, 0.00000, 4.570, 0.00000, 4.580, 0.00000, 4.590, 0.00000
4.600, 0.00000, 4.610, 0.00000, 4.620, 0.00000, 4.630, 0.00000
4.640, 0.00000, 4.650, 0.00000, 4.660, 0.00000, 4.670, 0.00000
4.680, 0.00000, 4.690, 0.00000, 4.700, 0.00000, 4.710, 0.00000
4.720, 0.00000, 4.730, 0.00000, 4.740, 0.00000, 4.750, 0.00000
4.760, 0.00000, 4.770, 0.00000, 4.780, 0.00000, 4.790, 0.00000
4.800, 0.00000, 4.810, 0.00000, 4.820, 0.00000, 4.830, 0.00000
4.840, 0.00000, 4.850, 0.00000, 4.860, 0.00000, 4.870, 0.00000
4.880, 0.00000, 4.890, 0.00000, 4.900, 0.00000, 4.910, 0.00000
4.920, 0.00000, 4.930, 0.00000, 4.940, 0.00000, 4.950, 0.00000
4.960, 0.00000, 4.970, 0.00000, 4.980, 0.00000, 4.990, 0.00000
5.000, 0.00000, 5.010, 0.00000, 5.020, 0.00000, 5.030, 0.00000
5.040, 0.00000, 5.050, 0.00000, 5.060, 0.00000, 5.070, 0.00000
5.080, 0.00000, 5.090, 0.00000, 5.100, 0.00000, 5.110, 0.00000
5.120, 0.00000, 5.130, 0.00000, 5.140, 0.00000, 5.150, 0.00000
5.160, 0.00000, 5.170, 0.00000, 5.180, 0.00000, 5.190, 0.00000
5.200, 0.00000, 5.210, 0.00000, 5.220, 0.00000, 5.230, 0.00000
5.240, 0.00000, 5.250, 0.00000, 5.260, 0.00000, 5.270, 0.00000
5.280, 0.00000, 5.290, 0.00000, 5.300, 0.00000, 5.310, 0.00000
5.320, 0.00000, 5.330, 0.00000, 5.340, 0.00000, 5.350, 0.00000
5.360, 0.00000, 5.370, 0.00000, 5.380, 0.00000, 5.390, 0.00000
5.400, 0.00000, 5.410, 0.00000, 5.420, 0.00000, 5.430, 0.00000
5.440, 0.00000, 5.450, 0.00000, 5.460, 0.00000, 5.470, 0.00000
5.480, 0.00000, 5.490, 0.00000, 5.500, 0.00000, 5.510, 0.00000
5.520, 0.00000, 5.530, 0.00000, 5.540, 0.00000, 5.550, 0.00000
5.560, 0.00000, 5.570, 0.00000, 5.580, 0.00000, 5.590, 0.00000
5.600, 0.00000, 5.610, 0.00000, 5.620, 0.00000, 5.630, 0.00000
5.640, 0.00000, 5.650, 0.00000, 5.660, 0.00000, 5.670, 0.00000
5.680, 0.00000, 5.690, 0.00000, 5.700, 0.00000, 5.710, 0.00000
5.720, 0.00000, 5.730, 0.00000, 5.740, 0.00000, 5.750, 0.00000
5.760, 0.00000, 5.770, 0.00000, 5.780, 0.00000, 5.790, 0.00000
5.800, 0.00000, 5.810, 0.00000, 5.820, 0.00000, 5.830, 0.00000
5.840, 0.00000, 5.850, 0.00000, 5.860, 0.00000, 5.870, 0.00000
5.880, 0.00000, 5.890, 0.00000, 5.900, 0.00000, 5.910, 0.00000
5.920, 0.00000, 5.930, 0.00000, 5.940, 0.00000, 5.950, 0.00000
5.960, 0.00000, 5.970, 0.00000, 5.980, 0.00000, 5.990, 0.00000
6.000, 0.00000, 6.010, 149.82562, 6.020, 299.65123, 6.030, 449.47685
6.040, 599.30246, 6.050, 749.12808, 6.060, 711.67167, 6.070, 674.21527
6.080, 636.75886, 6.090, 599.30246, 6.100, 561.84606, 6.110, 524.38965
6.120, 486.93325, 6.130, 449.47685, 6.140, 412.02044, 6.150, 374.56404
6.160, 337.10763, 6.170, 299.65123, 6.180, 262.19483, 6.190, 224.73842
6.200, 187.28202, 6.210, 149.82562, 6.220, 112.36921, 6.230, 74.91281
6.240, 37.45640, 6.250, 0.00000, 6.260, 0.00000, 6.270, 0.00000
6.280, 0.00000, 6.290, 0.00000, 6.300, 0.00000, 6.310, 0.00000
6.320, 0.00000, 6.330, 0.00000, 6.340, 0.00000, 6.350, 0.00000
6.360, 0.00000, 6.370, 0.00000, 6.380, 0.00000, 6.390, 0.00000
6.400, 0.00000, 6.410, 0.00000, 6.420, 0.00000, 6.430, 0.00000
6.440, 0.00000, 6.450, 0.00000, 6.460, 0.00000, 6.470, 0.00000
6.480, 0.00000, 6.490, 0.00000, 6.500, 0.00000, 6.510, 0.00000
6.520, 0.00000, 6.530, 0.00000, 6.540, 0.00000, 6.550, 0.00000
6.560, 0.00000, 6.570, 0.00000, 6.580, 0.00000, 6.590, 0.00000
6.600, 0.00000, 6.610, 0.00000, 6.620, 0.00000, 6.630, 0.00000
6.640, 0.00000, 6.650, 0.00000, 6.660, 0.00000, 6.670, 0.00000
6.680, 0.00000, 6.690, 0.00000, 6.700, 0.00000, 6.710, 0.00000
6.720, 0.00000, 6.730, 0.00000, 6.740, 0.00000, 6.750, 0.00000
6.760, 0.00000, 6.770, 0.00000, 6.780, 0.00000, 6.790, 0.00000
6.800, 0.00000, 6.810, 0.00000, 6.820, 0.00000, 6.830, 0.00000
6.840, 0.00000, 6.850, 0.00000, 6.860, 0.00000, 6.870, 0.00000
6.880, 0.00000, 6.890, 0.00000, 6.900, 0.00000, 6.910, 0.00000
6.920, 0.00000, 6.930, 0.00000, 6.940, 0.00000, 6.950, 0.00000
6.960, 0.00000, 6.970, 0.00000, 6.980, 0.00000, 6.990, 0.00000
7.000, 0.00000, 7.010, 0.00000, 7.020, 0.00000, 7.030, 0.00000
7.040, 0.00000, 7.050, 0.00000, 7.060, 0.00000, 7.070, 0.00000
7.080, 0.00000, 7.090, 0.00000, 7.100, 0.00000, 7.110, 0.00000
7.120, 0.00000, 7.130, 0.00000, 7.140, 0.00000, 7.150, 0.00000
7.160, 0.00000, 7.170, 0.00000, 7.180, 0.00000, 7.190, 0.00000
7.200, 0.00000, 7.210, 0.00000, 7.220, 0.00000, 7.230, 0.00000
7.240, 0.00000, 7.250, 0.00000, 7.260, 0.00000, 7.270, 0.00000
7.280, 0.00000, 7.290, 0.00000, 7.300, 0.00000, 7.310, 0.00000
7.320, 0.00000, 7.330, 0.00000, 7.340, 0.00000, 7.350, 0.00000
7.360, 0.00000, 7.370, 0.00000, 7.380, 0.00000, 7.390, 0.00000
7.400, 0.00000, 7.410, 0.00000, 7.420, 0.00000, 7.430, 0.00000
7.440, 0.00000, 7.450, 0.00000, 7.460, 0.00000, 7.470, 0.00000
7.480, 0.00000, 7.490, 0.00000, 7.500, 0.00000, 7.510, 0.00000
7.520, 0.00000, 7.530, 0.00000, 7.540, 0.00000, 7.550, 0.00000
7.560, 0.00000, 7.570, 0.00000, 7.580, 0.00000, 7.590, 0.00000
7.600, 0.00000, 7.610, 0.00000, 7.620, 0.00000, 7.630, 0.00000
7.640, 0.00000, 7.650, 0.00000, 7.660, 0.00000, 7.670, 0.00000
7.680, 0.00000, 7.690, 0.00000, 7.700, 0.00000, 7.710, 0.00000
7.720, 0.00000, 7.730, 0.00000, 7.740, 0.00000, 7.750, 0.00000
7.760, 0.00000, 7.770, 0.00000, 7.780, 0.00000, 7.790, 0.00000
7.800, 0.00000, 7.810, 0.00000, 7.820, 0.00000, 7.830, 0.00000
7.840, 0.00000, 7.850, 0.00000, 7.860, 0.00000, 7.870, 0.00000
7.880, 0.00000, 7.890, 0.00000, 7.900, 0.00000, 7.910, 0.00000
7.920, 0.00000, 7.930, 0.00000, 7.940, 0.00000, 7.950, 0.00000
7.960, 0.00000, 7.970, 0.00000, 7.980, 0.00000, 7.990, 0.00000
8.000, 0.00000, 8.010, 135.69531, 8.020, 271.39063, 8.030, 407.08594
8.040, 542.78125, 8.050, 678.47657, 8.060, 644.55274, 8.070, 610.62891
8.080, 576.70508, 8.090, 542.78125, 8.100, 508.85743, 8.110, 474.93360
8.120, 441.00977, 8.130, 407.08594, 8.140, 373.16211, 8.150, 339.23828
8.160, 305.31446, 8.170, 271.39063, 8.180, 237.46680, 8.190, 203.54297
8.200, 169.61914, 8.210, 135.69531, 8.220, 101.77149, 8.230, 67.84766
8.240, 33.92383, 8.250, 0.00000, 8.260, 0.00000, 8.270, 0.00000
8.280, 0.00000, 8.290, 0.00000, 8.300, 0.00000, 8.310, 0.00000
8.320, 0.00000, 8.330, 0.00000, 8.340, 0.00000, 8.350, 0.00000
8.360, 0.00000, 8.370, 0.00000, 8.380, 0.00000, 8.390, 0.00000
8.400, 0.00000, 8.410, 0.00000, 8.420, 0.00000, 8.430, 0.00000
8.440, 0.00000, 8.450, 0.00000, 8.460, 0.00000, 8.470, 0.00000
8.480, 0.00000, 8.490, 0.00000, 8.500, 0.00000, 8.510, 0.00000
8.520, 0.00000, 8.530, 0.00000, 8.540, 0.00000, 8.550, 0.00000
8.560, 0.00000, 8.570, 0.00000, 8.580, 0.00000, 8.590, 0.00000
8.600, 0.00000, 8.610, 0.00000, 8.620, 0.00000, 8.630, 0.00000
8.640, 0.00000, 8.650, 0.00000, 8.660, 0.00000, 8.670, 0.00000
8.680, 0.00000, 8.690, 0.00000, 8.700, 0.00000, 8.710, 0.00000
8.720, 0.00000, 8.730, 0.00000, 8.740, 0.00000, 8.750, 0.00000
8.760, 0.00000, 8.770, 0.00000, 8.780, 0.00000, 8.790, 0.00000
8.800, 0.00000, 8.810, 0.00000, 8.820, 0.00000, 8.830, 0.00000
8.840, 0.00000, 8.850, 0.00000, 8.860, 0.00000, 8.870, 0.00000
8.880, 0.00000, 8.890, 0.00000, 8.900, 0.00000, 8.910, 0.00000
8.920, 0.00000, 8.930, 0.00000, 8.940, 0.00000, 8.950, 0.00000
8.960, 0.00000, 8.970, 0.00000, 8.980, 0.00000, 8.990, 0.00000
9.000, 0.00000, 9.010, 0.00000, 9.020, 0.00000, 9.030, 0.00000
9.040, 0.00000, 9.050, 0.00000, 9.060, 0.00000, 9.070, 0.00000
9.080, 0.00000, 9.090, 0.00000, 9.100, 0.00000, 9.110, 0.00000
9.120, 0.00000, 9.130, 0.00000, 9.140, 0.00000, 9.150, 0.00000
9.160, 0.00000, 9.170, 0.00000, 9.180, 0.00000, 9.190, 0.00000
9.200, 0.00000, 9.210, 0.00000, 9.220, 0.00000, 9.230, 0.00000
9.240, 0.00000, 9.250, 0.00000, 9.260, 0.00000, 9.270, 0.00000
9.280, 0.00000, 9.290, 0.00000, 9.300, 0.00000, 9.310, 0.00000
9.320, 0.00000, 9.330, 0.00000, 9.340, 0.00000, 9.350, 0.00000
9.360, 0.00000, 9.370, 0.00000, 9.380, 0.00000, 9.390, 0.00000
9.400, 0.00000, 9.410, 0.00000, 9.420, 0.00000, 9.430, 0.00000
9.440, 0.00000, 9.450, 0.00000, 9.460, 0.00000, 9.470, 0.00000
9.480, 0.00000, 9.490, 0.00000, 9.500, 0.00000, 9.510, 0.00000
9.520, 0.00000, 9.530, 0.00000, 9.540, 0.00000, 9.550, 0.00000
9.560, 0.00000, 9.570, 0.00000, 9.580, 0.00000, 9.590, 0.00000
9.600, 0.00000, 9.610, 0.00000, 9.620, 0.00000, 9.630, 0.00000
9.640, 0.00000, 9.650, 0.00000, 9.660, 0.00000, 9.670, 0.00000
9.680, 0.00000, 9.690, 0.00000, 9.700, 0.00000, 9.710, 0.00000
9.720, 0.00000, 9.730, 0.00000, 9.740, 0.00000, 9.750, 0.00000
9.760, 0.00000, 9.770, 0.00000, 9.780, 0.00000, 9.790, 0.00000
9.800, 0.00000, 9.810, 0.00000, 9.820, 0.00000, 9.830, 0.00000
9.840, 0.00000, 9.850, 0.00000, 9.860, 0.00000, 9.870, 0.00000
9.880, 0.00000, 9.890, 0.00000, 9.900, 0.00000, 9.910, 0.00000
9.920, 0.00000, 9.930, 0.00000, 9.940, 0.00000, 9.950, 0.00000
9.960, 0.00000, 9.970, 0.00000, 9.980, 0.00000, 9.990, 0.00000
*AMPLITUDE, NAME=ROW5
0.000, 0.00000, 0.010, 597.34841, 0.020, 1194.69682, 0.030, 1792.04524
0.040, 2389.39365, 0.050, 2986.74206, 0.060, 2837.40496, 0.070, 2688.06785
0.080, 2538.73075, 0.090, 2389.39365, 0.100, 2240.05655, 0.110, 2090.71944
0.120, 1941.38234, 0.130, 1792.04524, 0.140, 1642.70813, 0.150, 1493.37103
0.160, 1344.03393, 0.170, 1194.69682, 0.180, 1045.35972, 0.190, 896.02262
0.200, 746.68552, 0.210, 597.34841, 0.220, 448.01131, 0.230, 298.67421
0.240, 149.33710, 0.250, 0.00000, 0.260, 0.00000, 0.270, 0.00000
0.280, 0.00000, 0.290, 0.00000, 0.300, 0.00000, 0.310, 0.00000
0.320, 0.00000, 0.330, 0.00000, 0.340, 0.00000, 0.350, 0.00000
0.360, 0.00000, 0.370, 0.00000, 0.380, 0.00000, 0.390, 0.00000
0.400, 0.00000, 0.410, 0.00000, 0.420, 0.00000, 0.430, 0.00000
0.440, 0.00000, 0.450, 0.00000, 0.460, 0.00000, 0.470, 0.00000
0.480, 0.00000, 0.490, 0.00000, 0.500, 0.00000, 0.510, 0.00000
0.520, 0.00000, 0.530, 0.00000, 0.540, 0.00000, 0.550, 0.00000
0.560, 0.00000, 0.570, 0.00000, 0.580, 0.00000, 0.590, 0.00000
0.600, 0.00000, 0.610, 0.00000, 0.620, 0.00000, 0.630, 0.00000
0.640, 0.00000, 0.650, 0.00000, 0.660, 0.00000, 0.670, 0.00000
0.680, 0.00000, 0.690, 0.00000, 0.700, 0.00000, 0.710, 0.00000
0.720, 0.00000, 0.730, 0.00000, 0.740, 0.00000, 0.750, 0.00000
0.760, 0.00000, 0.770, 0.00000, 0.780, 0.00000, 0.790, 0.00000
0.800, 0.00000, 0.810, 0.00000, 0.820, 0.00000, 0.830, 0.00000
0.840, 0.00000, 0.850, 0.00000, 0.860, 0.00000, 0.870, 0.00000
0.880, 0.00000, 0.890, 0.00000, 0.900, 0.00000, 0.910, 0.00000
0.920, 0.00000, 0.930, 0.00000, 0.940, 0.00000, 0.950, 0.00000
0.960, 0.00000, 0.970, 0.00000, 0.980, 0.00000, 0.990, 0.00000
1.000, 0.00000, 1.010, 0.00000, 1.020, 0.00000, 1.030, 0.00000
1.040, 0.00000, 1.050, 0.00000, 1.060, 0.00000, 1.070, 0.00000
1.080, 0.00000, 1.090, 0.00000, 1.100, 0.00000, 1.110, 0.00000
1.120, 0.00000, 1.130, 0.00000, 1.140, 0.00000, 1.150, 0.00000
1.160, 0.00000, 1.170, 0.00000, 1.180, 0.00000, 1.190, 0.00000
1.200, 0.00000, 1.210, 0.00000, 1.220, 0.00000, 1.230, 0.00000
1.240, 0.00000, 1.250, 0.00000, 1.260, 0.00000, 1.270, 0.00000
1.280, 0.00000, 1.290, 0.00000, 1.300, 0.00000, 1.310, 0.00000
1.320, 0.00000, 1.330, 0.00000, 1.340, 0.00000, 1.350, 0.00000
1.360, 0.00000, 1.370, 0.00000, 1.380, 0.00000, 1.390, 0.00000
1.400, 0.00000, 1.410, 0.00000, 1.420, 0.00000, 1.430, 0.00000
1.440, 0.00000, 1.450, 0.00000, 1.460, 0.00000, 1.470, 0.00000
1.480, 0.00000, 1.490, 0.00000, 1.500, 0.00000, 1.510, 0.00000
1.520, 0.00000, 1.530, 0.00000, 1.540, 0.00000, 1.550, 0.00000
1.560, 0.00000, 1.570, 0.00000, 1.580, 0.00000, 1.590, 0.00000
1.600, 0.00000, 1.610, 0.00000, 1.620, 0.00000, 1.630, 0.00000
1.640, 0.00000, 1.650, 0.00000, 1.660, 0.00000, 1.670, 0.00000
1.680, 0.00000, 1.690, 0.00000, 1.700, 0.00000, 1.710, 0.00000
1.720, 0.00000, 1.730, 0.00000, 1.740, 0.00000, 1.750, 0.00000
1.760, 0.00000, 1.770, 0.00000, 1.780, 0.00000, 1.790, 0.00000
1.800, 0.00000, 1.810, 0.00000, 1.820, 0.00000, 1.830, 0.00000
1.840, 0.00000, 1.850, 0.00000, 1.860, 0.00000, 1.870, 0.00000
1.880, 0.00000, 1.890, 0.00000, 1.900, 0.00000, 1.910, 0.00000
1.920, 0.00000, 1.930, 0.00000, 1.940, 0.00000, 1.950, 0.00000
1.960, 0.00000, 1.970, 0.00000, 1.980, 0.00000, 1.990, 0.00000
2.000, 0.00000, 2.010, 453.33903, 2.020, 906.67806, 2.030, 1360.01710
2.040, 1813.35613, 2.050, 2266.69516, 2.060, 2153.36040, 2.070, 2040.02565
2.080, 1926.69089, 2.090, 1813.35613, 2.100, 1700.02137, 2.110, 1586.68661
2.120, 1473.35185, 2.130, 1360.01710, 2.140, 1246.68234, 2.150, 1133.34758
2.160, 1020.01282, 2.170, 906.67806, 2.180, 793.34331, 2.190, 680.00855
2.200, 566.67379, 2.210, 453.33903, 2.220, 340.00427, 2.230, 226.66952
2.240, 113.33476, 2.250, 0.00000, 2.260, 0.00000, 2.270, 0.00000
2.280, 0.00000, 2.290, 0.00000, 2.300, 0.00000, 2.310, 0.00000
2.320, 0.00000, 2.330, 0.00000, 2.340, 0.00000, 2.350, 0.00000
2.360, 0.00000, 2.370, 0.00000, 2.380, 0.00000, 2.390, 0.00000
2.400, 0.00000, 2.410, 0.00000, 2.420, 0.00000, 2.430, 0.00000
2.440, 0.00000, 2.450, 0.00000, 2.460, 0.00000, 2.470, 0.00000
2.480, 0.00000, 2.490, 0.00000, 2.500, 0.00000, 2.510, 0.00000
2.520, 0.00000, 2.530, 0.00000, 2.540, 0.00000, 2.550, 0.00000
2.560, 0.00000, 2.570, 0.00000, 2.580, 0.00000, 2.590, 0.00000
2.600, 0.00000, 2.610, 0.00000, 2.620, 0.00000, 2.630, 0.00000
2.640, 0.00000, 2.650, 0.00000, 2.660, 0.00000, 2.670, 0.00000
2.680, 0.00000, 2.690, 0.00000, 2.700, 0.00000, 2.710, 0.00000
2.720, 0.00000, 2.730, 0.00000, 2.740, 0.00000, 2.750, 0.00000
2.760, 0.00000, 2.770, 0.00000, 2.780, 0.00000, 2.790, 0.00000
2.800, 0.00000, 2.810, 0.00000, 2.820, 0.00000, 2.830, 0.00000
2.840, 0.00000, 2.850, 0.00000, 2.860, 0.00000, 2.870, 0.00000
2.880, 0.00000, 2.890, 0.00000, 2.900, 0.00000, 2.910, 0.00000
2.920, 0.00000, 2.930, 0.00000, 2.940, 0.00000, 2.950, 0.00000
2.960, 0.00000, 2.970, 0.00000, 2.980, 0.00000, 2.990, 0.00000
3.000, 0.00000, 3.010, 0.00000, 3.020, 0.00000, 3.030, 0.00000
3.040, 0.00000, 3.050, 0.00000, 3.060, 0.00000, 3.070, 0.00000
3.080, 0.00000, 3.090, 0.00000, 3.100, 0.00000, 3.110, 0.00000
3.120, 0.00000, 3.130, 0.00000, 3.140, 0.00000, 3.150, 0.00000
3.160, 0.00000, 3.170, 0.00000, 3.180, 0.00000, 3.190, 0.00000
3.200, 0.00000, 3.210, 0.00000, 3.220, 0.00000, 3.230, 0.00000
3.240, 0.00000, 3.250, 0.00000, 3.260, 0.00000, 3.270, 0.00000
3.280, 0.00000, 3.290, 0.00000, 3.300, 0.00000, 3.310, 0.00000
3.320, 0.00000, 3.330, 0.00000, 3.340, 0.00000, 3.350, 0.00000
3.360, 0.00000, 3.370, 0.00000, 3.380, 0.00000, 3.390, 0.00000
3.400, 0.00000, 3.410, 0.00000, 3.420, 0.00000, 3.430, 0.00000
3.440, 0.00000, 3.450, 0.00000, 3.460, 0.00000, 3.470, 0.00000
3.480, 0.00000, 3.490, 0.00000, 3.500, 0.00000, 3.510, 0.00000
3.520, 0.00000, 3.530, 0.00000, 3.540, 0.00000, 3.550, 0.00000
3.560, 0.00000, 3.570, 0.00000, 3.580, 0.00000, 3.590, 0.00000
3.600, 0.00000, 3.610, 0.00000, 3.620, 0.00000, 3.630, 0.00000
3.640, 0.00000, 3.650, 0.00000, 3.660, 0.00000, 3.670, 0.00000
3.680, 0.00000, 3.690, 0.00000, 3.700, 0.00000, 3.710, 0.00000
3.720, 0.00000, 3.730, 0.00000, 3.740, 0.00000, 3.750, 0.00000
3.760, 0.00000, 3.770, 0.00000, 3.780, 0.00000, 3.790, 0.00000
3.800, 0.00000, 3.810, 0.00000, 3.820, 0.00000, 3.830, 0.00000
3.840, 0.00000, 3.850, 0.00000, 3.860, 0.00000, 3.870, 0.00000
3.880, 0.00000, 3.890, 0.00000, 3.900, 0.00000, 3.910, 0.00000
3.920, 0.00000, 3.930, 0.00000, 3.940, 0.00000, 3.950, 0.00000
3.960, 0.00000, 3.970, 0.00000, 3.980, 0.00000, 3.990, 0.00000
4.000, 0.00000, 4.010, 382.66151, 4.020, 765.32303, 4.030, 1147.98454
4.040, 1530.64605, 4.050, 1913.30756, 4.060, 1817.64219, 4.070, 1721.97681
4.080, 1626.31143, 4.090, 1530.64605, 4.100, 1434.98067, 4.110, 1339.31529
4.120, 1243.64992, 4.130, 1147.98454, 4.140, 1052.31916, 4.150, 956.65378
4.160, 860.98840, 4.170, 765.32303, 4.180, 669.65765, 4.190, 573.99227
4.200, 478.32689, 4.210, 382.66151, 4.220, 286.99613, 4.230, 191.33076
4.240, 95.66538, 4.250, 0.00000, 4.260, 0.00000, 4.270, 0.00000
4.280, 0.00000, 4.290, 0.00000, 4.300, 0.00000, 4.310, 0.00000
4.320, 0.00000, 4.330, 0.00000, 4.340, 0.00000, 4.350, 0.00000
4.360, 0.00000, 4.370, 0.00000, 4.380, 0.00000, 4.390, 0.00000
4.400, 0.00000, 4.410, 0.00000, 4.420, 0.00000, 4.430, 0.00000
4.440, 0.00000, 4.450, 0.00000, 4.460, 0.00000, 4.470, 0.00000
4.480, 0.00000, 4.490, 0.00000, 4.500, 0.00000, 4.510, 0.00000
4.520, 0.00000, 4.530, 0.00000, 4.540, 0.00000, 4.550, 0.00000
4.560, 0.00000, 4.570, 0.00000, 4.580, 0.00000, 4.590, 0.00000
4.600, 0.00000, 4.610, 0.00000, 4.620, 0.00000, 4.630, 0.00000
4.640, 0.00000, 4.650, 0.00000, 4.660, 0.00000, 4.670, 0.00000
4.680, 0.00000, 4.690, 0.00000, 4.700, 0.00000, 4.710, 0.00000
4.720, 0.00000, 4.730, 0.00000, 4.740, 0.00000, 4.750, 0.00000
4.760, 0.00000, 4.770, 0.00000, 4.780, 0.00000, 4.790, 0.00000
4.800, 0.00000, 4.810, 0.00000, 4.820, 0.00000, 4.830, 0.00000
4.840, 0.00000, 4.850, 0.00000, 4.860, 0.00000, 4.870, 0.00000
4.880, 0.00000, 4.890, 0.00000, 4.900, 0.00000, 4.910, 0.00000
4.920, 0.00000, 4.930, 0.00000, 4.940, 0.00000, 4.950, 0.00000
4.960, 0.00000, 4.970, 0.00000, 4.980, 0.00000, 4.990, 0.00000
5.000, 0.00000, 5.010, 0.00000, 5.020, 0.00000, 5.030, 0.00000
5.040, 0.00000, 5.050, 0.00000, 5.060, 0.00000, 5.070, 0.00000
5.080, 0.00000, 5.090, 0.00000, 5.100, 0.00000, 5.110, 0.00000
5.120, 0.00000, 5.130, 0.00000, 5.140, 0.00000, 5.150, 0.00000
5.160, 0.00000, 5.170, 0.00000, 5.180, 0.00000, 5.190, 0.00000
5.200, 0.00000, 5.210, 0.00000, 5.220, 0.00000, 5.230, 0.00000
5.240, 0.00000, 5.250, 0.00000, 5.260, 0.00000, 5.270, 0.00000
5.280, 0.00000, 5.290, 0.00000, 5.300, 0.00000, 5.310, 0.00000
5.320, 0.00000, 5.330, 0.00000, 5.340, 0.00000, 5.350, 0.00000
5.360, 0.00000, 5.370, 0.00000, 5.380, 0.00000, 5.390, 0.00000
5.400, 0.00000, 5.410, 0.00000, 5.420, 0.00000, 5.430, 0.00000
5.440, 0.00000, 5.450, 0.00000, 5.460, 0.00000, 5.470, 0.00000
5.480, 0.00000, 5.490, 0.00000, 5.500, 0.00000, 5.510, 0.00000
5.520, 0.00000, 5.530, 0.00000, 5.540, 0.00000, 5.550, 0.00000
5.560, 0.00000, 5.570, 0.00000, 5.580, 0.00000, 5.590, 0.00000
5.600, 0.00000, 5.610, 0.00000, 5.620, 0.00000, 5.630, 0.00000
5.640, 0.00000, 5.650, 0.00000, 5.660, 0.00000, 5.670, 0.00000
5.680, 0.00000, 5.690, 0.00000, 5.700, 0.00000, 5.710, 0.00000
5.720, 0.00000, 5.730, 0.00000, 5.740, 0.00000, 5.750, 0.00000
5.760, 0.00000, 5.770, 0.00000, 5.780, 0.00000, 5.790, 0.00000
5.800, 0.00000, 5.810, 0.00000, 5.820, 0.00000, 5.830, 0.00000
5.840, 0.00000, 5.850, 0.00000, 5.860, 0.00000, 5.870, 0.00000
5.880, 0.00000, 5.890, 0.00000, 5.900, 0.00000, 5.910, 0.00000
5.920, 0.00000, 5.930, 0.00000, 5.940, 0.00000, 5.950, 0.00000
5.960, 0.00000, 5.970, 0.00000, 5.980, 0.00000, 5.990, 0.00000
6.000, 0.00000, 6.010, 337.93037, 6.020, 675.86074, 6.030, 1013.79111
6.040, 1351.72148, 6.050, 1689.65185, 6.060, 1605.16926, 6.070, 1520.68667
6.080, 1436.20407, 6.090, 1351.72148, 6.100, 1267.23889, 6.110, 1182.75630
6.120, 1098.27370, 6.130, 1013.79111, 6.140, 929.30852, 6.150, 844.82593
6.160, 760.34333, 6.170, 675.86074, 6.180, 591.37815, 6.190, 506.89556
6.200, 422.41296, 6.210, 337.93037, 6.220, 253.44778, 6.230, 168.96519
6.240, 84.48259, 6.250, 0.00000, 6.260, 0.00000, 6.270, 0.00000
6.280, 0.00000, 6.290, 0.00000, 6.300, 0.00000, 6.310, 0.00000
6.320, 0.00000, 6.330, 0.00000, 6.340, 0.00000, 6.350, 0.00000
6.360, 0.00000, 6.370, 0.00000, 6.380, 0.00000, 6.390, 0.00000
6.400, 0.00000, 6.410, 0.00000, 6.420, 0.00000, 6.430, 0.00000
6.440, 0.00000, 6.450, 0.00000, 6.460, 0.00000, 6.470, 0.00000
6.480, 0.00000, 6.490, 0.00000, 6.500, 0.00000, 6.510, 0.00000
6.520, 0.00000, 6.530, 0.00000, 6.540, 0.00000, 6.550, 0.00000
6.560, 0.00000, 6.570, 0.00000, 6.580, 0.00000, 6.590, 0.00000
6.600, 0.00000, 6.610, 0.00000, 6.620, 0.00000, 6.630, 0.00000
6.640, 0.00000, 6.650, 0.00000, 6.660, 0.00000, 6.670, 0.00000
6.680, 0.00000, 6.690, 0.00000, 6.700, 0.00000, 6.710, 0.00000
6.720, 0.00000, 6.730, 0.00000, 6.740, 0.00000, 6.750, 0.00000
6.760, 0.00000, 6.770, 0.00000, 6.780, 0.00000, 6.790, 0.00000
6.800, 0.00000, 6.810, 0.00000, 6.820, 0.00000, 6.830, 0.00000
6.840, 0.00000, 6.850, 0.00000, 6.860, 0.00000, 6.870, 0.00000
6.880, 0.00000, 6.890, 0.00000, 6.900, 0.00000, 6.910, 0.00000
6.920, 0.00000, 6.930, 0.00000, 6.940, 0.00000, 6.950, 0.00000
6.960, 0.00000, 6.970, 0.00000, 6.980, 0.00000, 6.990, 0.00000
7.000, 0.00000, 7.010, 0.00000, 7.020, 0.00000, 7.030, 0.00000
7.040, 0.00000, 7.050, 0.00000, 7.060, 0.00000, 7.070, 0.00000
7.080, 0.00000, 7.090, 0.00000, 7.100, 0.00000, 7.110, 0.00000
7.120, 0.00000, 7.130, 0.00000, 7.140, 0.00000, 7.150, 0.00000
7.160, 0.00000, 7.170, 0.00000, 7.180, 0.00000, 7.190, 0.00000
7.200, 0.00000, 7.210, 0.00000, 7.220, 0.00000, 7.230, 0.00000
7.240, 0.00000, 7.250, 0.00000, 7.260, 0.00000, 7.270, 0.00000
7.280, 0.00000, 7.290, 0.00000, 7.300, 0.00000, 7.310, 0.00000
7.320, 0.00000, 7.330, 0.00000, 7.340, 0.00000, 7.350, 0.00000
7.360, 0.00000, 7.370, 0.00000, 7.380, 0.00000, 7.390, 0.00000
7.400, 0.00000, 7.410, 0.00000, 7.420, 0.00000, 7.430, 0.00000
7.440, 0.00000, 7.450, 0.00000, 7.460, 0.00000, 7.470, 0.00000
7.480, 0.00000, 7.490, 0.00000, 7.500, 0.00000, 7.510, 0.00000
7.520, 0.00000, 7.530, 0.00000, 7.540, 0.00000, 7.550, 0.00000
7.560, 0.00000, 7.570, 0.00000, 7.580, 0.00000, 7.590, 0.00000
7.600, 0.00000, 7.610, 0.00000, 7.620, 0.00000, 7.630, 0.00000
7.640, 0.00000, 7.650, 0.00000, 7.660, 0.00000, 7.670, 0.00000
7.680, 0.00000, 7.690, 0.00000, 7.700, 0.00000, 7.710, 0.00000
7.720, 0.00000, 7.730, 0.00000, 7.740, 0.00000, 7.750, 0.00000
7.760, 0.00000, 7.770, 0.00000, 7.780, 0.00000, 7.790, 0.00000
7.800, 0.00000, 7.810, 0.00000, 7.820, 0.00000, 7.830, 0.00000
7.840, 0.00000, 7.850, 0.00000, 7.860, 0.00000, 7.870, 0.00000
7.880, 0.00000, 7.890, 0.00000, 7.900, 0.00000, 7.910, 0.00000
7.920, 0.00000, 7.930, 0.00000, 7.940, 0.00000, 7.950, 0.00000
7.960, 0.00000, 7.970, 0.00000, 7.980, 0.00000, 7.990, 0.00000
8.000, 0.00000, 8.010, 306.05960, 8.020, 612.11919, 8.030, 918.17879
8.040, 1224.23839, 8.050, 1530.29799, 8.060, 1453.78309, 8.070, 1377.26819
8.080, 1300.75329, 8.090, 1224.23839, 8.100, 1147.72349, 8.110, 1071.20859
8.120, 994.69369, 8.130, 918.17879, 8.140, 841.66389, 8.150, 765.14899
8.160, 688.63409, 8.170, 612.11919, 8.180, 535.60430, 8.190, 459.08940
8.200, 382.57450, 8.210, 306.05960, 8.220, 229.54470, 8.230, 153.02980
8.240, 76.51490, 8.250, 0.00000, 8.260, 0.00000, 8.270, 0.00000
8.280, 0.00000, 8.290, 0.00000, 8.300, 0.00000, 8.310, 0.00000
8.320, 0.00000, 8.330, 0.00000, 8.340, 0.00000, 8.350, 0.00000
8.360, 0.00000, 8.370, 0.00000, 8.380, 0.00000, 8.390, 0.00000
8.400, 0.00000, 8.410, 0.00000, 8.420, 0.00000, 8.430, 0.00000
8.440, 0.00000, 8.450, 0.00000, 8.460, 0.00000, 8.470, 0.00000
8.480, 0.00000, 8.490, 0.00000, 8.500, 0.00000, 8.510, 0.00000
8.520, 0.00000, 8.530, 0.00000, 8.540, 0.00000, 8.550, 0.00000
8.560, 0.00000, 8.570, 0.00000, 8.580, 0.00000, 8.590, 0.00000
8.600, 0.00000, 8.610, 0.00000, 8.620, 0.00000, 8.630, 0.00000
8.640, 0.00000, 8.650, 0.00000, 8.660, 0.00000, 8.670, 0.00000
8.680, 0.00000, 8.690, 0.00000, 8.700, 0.00000, 8.710, 0.00000
8.720, 0.00000, 8.730, 0.00000, 8.740, 0.00000, 8.750, 0.00000
8.760, 0.00000, 8.770, 0.00000, 8.780, 0.00000, 8.790, 0.00000
8.800, 0.00000, 8.810, 0.00000, 8.820, 0.00000, 8.830, 0.00000
8.840, 0.00000, 8.850, 0.00000, 8.860, 0.00000, 8.870, 0.00000
8.880, 0.00000, 8.890, 0.00000, 8.900, 0.00000, 8.910, 0.00000
8.920, 0.00000, 8.930, 0.00000, 8.940, 0.00000, 8.950, 0.00000
8.960, 0.00000, 8.970, 0.00000, 8.980, 0.00000, 8.990, 0.00000
9.000, 0.00000, 9.010, 0.00000, 9.020, 0.00000, 9.030, 0.00000
9.040, 0.00000, 9.050, 0.00000, 9.060, 0.00000, 9.070, 0.00000
9.080, 0.00000, 9.090, 0.00000, 9.100, 0.00000, 9.110, 0.00000
9.120, 0.00000, 9.130, 0.00000, 9.140, 0.00000, 9.150, 0.00000
9.160, 0.00000, 9.170, 0.00000, 9.180, 0.00000, 9.190, 0.00000
9.200, 0.00000, 9.210, 0.00000, 9.220, 0.00000, 9.230, 0.00000
9.240, 0.00000, 9.250, 0.00000, 9.260, 0.00000, 9.270, 0.00000
9.280, 0.00000, 9.290, 0.00000, 9.300, 0.00000, 9.310, 0.00000
9.320, 0.00000, 9.330, 0.00000, 9.340, 0.00000, 9.350, 0.00000
9.360, 0.00000, 9.370, 0.00000, 9.380, 0.00000, 9.390, 0.00000
9.400, 0.00000, 9.410, 0.00000, 9.420, 0.00000, 9.430, 0.00000
9.440, 0.00000, 9.450, 0.00000, 9.460, 0.00000, 9.470, 0.00000
9.480, 0.00000, 9.490, 0.00000, 9.500, 0.00000, 9.510, 0.00000
9.520, 0.00000, 9.530, 0.00000, 9.540, 0.00000, 9.550, 0.00000
9.560, 0.00000, 9.570, 0.00000, 9.580, 0.00000, 9.590, 0.00000
9.600, 0.00000, 9.610, 0.00000, 9.620, 0.00000, 9.630, 0.00000
9.640, 0.00000, 9.650, 0.00000, 9.660, 0.00000, 9.670, 0.00000
9.680, 0.00000, 9.690, 0.00000, 9.700, 0.00000, 9.710, 0.00000
9.720, 0.00000, 9.730, 0.00000, 9.740, 0.00000, 9.750, 0.00000
9.760, 0.00000, 9.770, 0.00000, 9.780, 0.00000, 9.790, 0.00000
9.800, 0.00000, 9.810, 0.00000, 9.820, 0.00000, 9.830, 0.00000
9.840, 0.00000, 9.850, 0.00000, 9.860, 0.00000, 9.870, 0.00000
9.880, 0.00000, 9.890, 0.00000, 9.900, 0.00000, 9.910, 0.00000
9.920, 0.00000, 9.930, 0.00000, 9.940, 0.00000, 9.950, 0.00000
9.960, 0.00000, 9.970, 0.00000, 9.980, 0.00000, 9.990, 0.00000
*AMPLITUDE, NAME=ROW6
0.000, 0.00000, 0.010, 1344.23273, 0.020, 2688.46545, 0.030, 4032.69818
0.040, 5376.93091, 0.050, 6721.16363, 0.060, 6385.10545, 0.070, 6049.04727
0.080, 5712.98909, 0.090, 5376.93091, 0.100, 5040.87272, 0.110, 4704.81454
0.120, 4368.75636, 0.130, 4032.69818, 0.140, 3696.64000, 0.150, 3360.58182
0.160, 3024.52363, 0.170, 2688.46545, 0.180, 2352.40727, 0.190, 2016.34909
0.200, 1680.29091, 0.210, 1344.23273, 0.220, 1008.17454, 0.230, 672.11636
0.240, 336.05818, 0.250, 0.00000, 0.260, 0.00000, 0.270, 0.00000
0.280, 0.00000, 0.290, 0.00000, 0.300, 0.00000, 0.310, 0.00000
0.320, 0.00000, 0.330, 0.00000, 0.340, 0.00000, 0.350, 0.00000
0.360, 0.00000, 0.370, 0.00000, 0.380, 0.00000, 0.390, 0.00000
0.400, 0.00000, 0.410, 0.00000, 0.420, 0.00000, 0.430, 0.00000
0.440, 0.00000, 0.450, 0.00000, 0.460, 0.00000, 0.470, 0.00000
0.480, 0.00000, 0.490, 0.00000, 0.500, 0.00000, 0.510, 0.00000
0.520, 0.00000, 0.530, 0.00000, 0.540, 0.00000, 0.550, 0.00000
0.560, 0.00000, 0.570, 0.00000, 0.580, 0.00000, 0.590, 0.00000
0.600, 0.00000, 0.610, 0.00000, 0.620, 0.00000, 0.630, 0.00000
0.640, 0.00000, 0.650, 0.00000, 0.660, 0.00000, 0.670, 0.00000
0.680, 0.00000, 0.690, 0.00000, 0.700, 0.00000, 0.710, 0.00000
0.720, 0.00000, 0.730, 0.00000, 0.740, 0.00000, 0.750, 0.00000
0.760, 0.00000, 0.770, 0.00000, 0.780, 0.00000, 0.790, 0.00000
0.800, 0.00000, 0.810, 0.00000, 0.820, 0.00000, 0.830, 0.00000
0.840, 0.00000, 0.850, 0.00000, 0.860, 0.00000, 0.870, 0.00000
0.880, 0.00000, 0.890, 0.00000, 0.900, 0.00000, 0.910, 0.00000
0.920, 0.00000, 0.930, 0.00000, 0.940, 0.00000, 0.950, 0.00000
0.960, 0.00000, 0.970, 0.00000, 0.980, 0.00000, 0.990, 0.00000
1.000, 0.00000, 1.010, 0.00000, 1.020, 0.00000, 1.030, 0.00000
1.040, 0.00000, 1.050, 0.00000, 1.060, 0.00000, 1.070, 0.00000
1.080, 0.00000, 1.090, 0.00000, 1.100, 0.00000, 1.110, 0.00000
1.120, 0.00000, 1.130, 0.00000, 1.140, 0.00000, 1.150, 0.00000
1.160, 0.00000, 1.170, 0.00000, 1.180, 0.00000, 1.190, 0.00000
1.200, 0.00000, 1.210, 0.00000, 1.220, 0.00000, 1.230, 0.00000
1.240, 0.00000, 1.250, 0.00000, 1.260, 0.00000, 1.270, 0.00000
1.280, 0.00000, 1.290, 0.00000, 1.300, 0.00000, 1.310, 0.00000
1.320, 0.00000, 1.330, 0.00000, 1.340, 0.00000, 1.350, 0.00000
1.360, 0.00000, 1.370, 0.00000, 1.380, 0.00000, 1.390, 0.00000
1.400, 0.00000, 1.410, 0.00000, 1.420, 0.00000, 1.430, 0.00000
1.440, 0.00000, 1.450, 0.00000, 1.460, 0.00000, 1.470, 0.00000
1.480, 0.00000, 1.490, 0.00000, 1.500, 0.00000, 1.510, 0.00000
1.520, 0.00000, 1.530, 0.00000, 1.540, 0.00000, 1.550, 0.00000
1.560, 0.00000, 1.570, 0.00000, 1.580, 0.00000, 1.590, 0.00000
1.600, 0.00000, 1.610, 0.00000, 1.620, 0.00000, 1.630, 0.00000
1.640, 0.00000, 1.650, 0.00000, 1.660, 0.00000, 1.670, 0.00000
1.680, 0.00000, 1.690, 0.00000, 1.700, 0.00000, 1.710, 0.00000
1.720, 0.00000, 1.730, 0.00000, 1.740, 0.00000, 1.750, 0.00000
1.760, 0.00000, 1.770, 0.00000, 1.780, 0.00000, 1.790, 0.00000
1.800, 0.00000, 1.810, 0.00000, 1.820, 0.00000, 1.830, 0.00000
1.840, 0.00000, 1.850, 0.00000, 1.860, 0.00000, 1.870, 0.00000
1.880, 0.00000, 1.890, 0.00000, 1.900, 0.00000, 1.910, 0.00000
1.920, 0.00000, 1.930, 0.00000, 1.940, 0.00000, 1.950, 0.00000
1.960, 0.00000, 1.970, 0.00000, 1.980, 0.00000, 1.990, 0.00000
2.000, 0.00000, 2.010, 1020.16370, 2.020, 2040.32739, 2.030, 3060.49109
2.040, 4080.65478, 2.050, 5100.81848, 2.060, 4845.77755, 2.070, 4590.73663
2.080, 4335.69570, 2.090, 4080.65478, 2.100, 3825.61386, 2.110, 3570.57293
2.120, 3315.53201, 2.130, 3060.49109, 2.140, 2805.45016, 2.150, 2550.40924
2.160, 2295.36831, 2.170, 2040.32739, 2.180, 1785.28647, 2.190, 1530.24554
2.200, 1275.20462, 2.210, 1020.16370, 2.220, 765.12277, 2.230, 510.08185
2.240, 255.04092, 2.250, 0.00000, 2.260, 0.00000, 2.270, 0.00000
2.280, 0.00000, 2.290, 0.00000, 2.300, 0.00000, 2.310, 0.00000
2.320, 0.00000, 2.330, 0.00000, 2.340, 0.00000, 2.350, 0.00000
2.360, 0.00000, 2.370, 0.00000, 2.380, 0.00000, 2.390, 0.00000
2.400, 0.00000, 2.410, 0.00000, 2.420, 0.00000, 2.430, 0.00000
2.440, 0.00000, 2.450, 0.00000, 2.460, 0.00000, 2.470, 0.00000
2.480, 0.00000, 2.490, 0.00000, 2.500, 0.00000, 2.510, 0.00000
2.520, 0.00000, 2.530, 0.00000, 2.540, 0.00000, 2.550, 0.00000
2.560, 0.00000, 2.570, 0.00000, 2.580, 0.00000, 2.590, 0.00000
2.600, 0.00000, 2.610, 0.00000, 2.620, 0.00000, 2.630, 0.00000
2.640, 0.00000, 2.650, 0.00000, 2.660, 0.00000, 2.670, 0.00000
2.680, 0.00000, 2.690, 0.00000, 2.700, 0.00000, 2.710, 0.00000
2.720, 0.00000, 2.730, 0.00000, 2.740, 0.00000, 2.750, 0.00000
2.760, 0.00000, 2.770, 0.00000, 2.780, 0.00000, 2.790, 0.00000
2.800, 0.00000, 2.810, 0.00000, 2.820, 0.00000, 2.830, 0.00000
2.840, 0.00000, 2.850, 0.00000, 2.860, 0.00000, 2.870, 0.00000
2.880, 0.00000, 2.890, 0.00000, 2.900, 0.00000, 2.910, 0.00000
2.920, 0.00000, 2.930, 0.00000, 2.940, 0.00000, 2.950, 0.00000
2.960, 0.00000, 2.970, 0.00000, 2.980, 0.00000, 2.990, 0.00000
3.000, 0.00000, 3.010, 0.00000, 3.020, 0.00000, 3.030, 0.00000
3.040, 0.00000, 3.050, 0.00000, 3.060, 0.00000, 3.070, 0.00000
3.080, 0.00000, 3.090, 0.00000, 3.100, 0.00000, 3.110, 0.00000
3.120, 0.00000, 3.130, 0.00000, 3.140, 0.00000, 3.150, 0.00000
3.160, 0.00000, 3.170, 0.00000, 3.180, 0.00000, 3.190, 0.00000
3.200, 0.00000, 3.210, 0.00000, 3.220, 0.00000, 3.230, 0.00000
3.240, 0.00000, 3.250, 0.00000, 3.260, 0.00000, 3.270, 0.00000
3.280, 0.00000, 3.290, 0.00000, 3.300, 0.00000, 3.310, 0.00000
3.320, 0.00000, 3.330, 0.00000, 3.340, 0.00000, 3.350, 0.00000
3.360, 0.00000, 3.370, 0.00000, 3.380, 0.00000, 3.390, 0.00000
3.400, 0.00000, 3.410, 0.00000, 3.420, 0.00000, 3.430, 0.00000
3.440, 0.00000, 3.450, 0.00000, 3.460, 0.00000, 3.470, 0.00000
3.480, 0.00000, 3.490, 0.00000, 3.500, 0.00000, 3.510, 0.00000
3.520, 0.00000, 3.530, 0.00000, 3.540, 0.00000, 3.550, 0.00000
3.560, 0.00000, 3.570, 0.00000, 3.580, 0.00000, 3.590, 0.00000
3.600, 0.00000, 3.610, 0.00000, 3.620, 0.00000, 3.630, 0.00000
3.640, 0.00000, 3.650, 0.00000, 3.660, 0.00000, 3.670, 0.00000
3.680, 0.00000, 3.690, 0.00000, 3.700, 0.00000, 3.710, 0.00000
3.720, 0.00000, 3.730, 0.00000, 3.740, 0.00000, 3.750, 0.00000
3.760, 0.00000, 3.770, 0.00000, 3.780, 0.00000, 3.790, 0.00000
3.800, 0.00000, 3.810, 0.00000, 3.820, 0.00000, 3.830, 0.00000
3.840, 0.00000, 3.850, 0.00000, 3.860, 0.00000, 3.870, 0.00000
3.880, 0.00000, 3.890, 0.00000, 3.900, 0.00000, 3.910, 0.00000
3.920, 0.00000, 3.930, 0.00000, 3.940, 0.00000, 3.950, 0.00000
3.960, 0.00000, 3.970, 0.00000, 3.980, 0.00000, 3.990, 0.00000
4.000, 0.00000, 4.010, 861.11575, 4.020, 1722.23151, 4.030, 2583.34726
4.040, 3444.46302, 4.050, 4305.57877, 4.060, 4090.29983, 4.070, 3875.02090
4.080, 3659.74196, 4.090, 3444.46302, 4.100, 3229.18408, 4.110, 3013.90514
4.120, 2798.62620, 4.130, 2583.34726, 4.140, 2368.06832, 4.150, 2152.78939
4.160, 1937.51045, 4.170, 1722.23151, 4.180, 1506.95257, 4.190, 1291.67363
4.200, 1076.39469, 4.210, 861.11575, 4.220, 645.83682, 4.230, 430.55788
4.240, 215.27894, 4.250, 0.00000, 4.260, 0.00000, 4.270, 0.00000
4.280, 0.00000, 4.290, 0.00000, 4.300, 0.00000, 4.310, 0.00000
4.320, 0.00000, 4.330, 0.00000, 4.340, 0.00000, 4.350, 0.00000
4.360, 0.00000, 4.370, 0.00000, 4.380, 0.00000, 4.390, 0.00000
4.400, 0.00000, 4.410, 0.00000, 4.420, 0.00000, 4.430, 0.00000
4.440, 0.00000, 4.450, 0.00000, 4.460, 0.00000, 4.470, 0.00000
4.480, 0.00000, 4.490, 0.00000, 4.500, 0.00000, 4.510, 0.00000
4.520, 0.00000, 4.530, 0.00000, 4.540, 0.00000, 4.550, 0.00000
4.560, 0.00000, 4.570, 0.00000, 4.580, 0.00000, 4.590, 0.00000
4.600, 0.00000, 4.610, 0.00000, 4.620, 0.00000, 4.630, 0.00000
4.640, 0.00000, 4.650, 0.00000, 4.660, 0.00000, 4.670, 0.00000
4.680, 0.00000, 4.690, 0.00000, 4.700, 0.00000, 4.710, 0.00000
4.720, 0.00000, 4.730, 0.00000, 4.740, 0.00000, 4.750, 0.00000
4.760, 0.00000, 4.770, 0.00000, 4.780, 0.00000, 4.790, 0.00000
4.800, 0.00000, 4.810, 0.00000, 4.820, 0.00000, 4.830, 0.00000
4.840, 0.00000, 4.850, 0.00000, 4.860, 0.00000, 4.870, 0.00000
4.880, 0.00000, 4.890, 0.00000, 4.900, 0.00000, 4.910, 0.00000
4.920, 0.00000, 4.930, 0.00000, 4.940, 0.00000, 4.950, 0.00000
4.960, 0.00000, 4.970, 0.00000, 4.980, 0.00000, 4.990, 0.00000
5.000, 0.00000, 5.010, 0.00000, 5.020, 0.00000, 5.030, 0.00000
5.040, 0.00000, 5.050, 0.00000, 5.060, 0.00000, 5.070, 0.00000
5.080, 0.00000, 5.090, 0.00000, 5.100, 0.00000, 5.110, 0.00000
5.120, 0.00000, 5.130, 0.00000, 5.140, 0.00000, 5.150, 0.00000
5.160, 0.00000, 5.170, 0.00000, 5.180, 0.00000, 5.190, 0.00000
5.200, 0.00000, 5.210, 0.00000, 5.220, 0.00000, 5.230, 0.00000
5.240, 0.00000, 5.250, 0.00000, 5.260, 0.00000, 5.270, 0.00000
5.280, 0.00000, 5.290, 0.00000, 5.300, 0.00000, 5.310, 0.00000
5.320, 0.00000, 5.330, 0.00000, 5.340, 0.00000, 5.350, 0.00000
5.360, 0.00000, 5.370, 0.00000, 5.380, 0.00000, 5.390, 0.00000
5.400, 0.00000, 5.410, 0.00000, 5.420, 0.00000, 5.430, 0.00000
5.440, 0.00000, 5.450, 0.00000, 5.460, 0.00000, 5.470, 0.00000
5.480, 0.00000, 5.490, 0.00000, 5.500, 0.00000, 5.510, 0.00000
5.520, 0.00000, 5.530, 0.00000, 5.540, 0.00000, 5.550, 0.00000
5.560, 0.00000, 5.570, 0.00000, 5.580, 0.00000, 5.590, 0.00000
5.600, 0.00000, 5.610, 0.00000, 5.620, 0.00000, 5.630, 0.00000
5.640, 0.00000, 5.650, 0.00000, 5.660, 0.00000, 5.670, 0.00000
5.680, 0.00000, 5.690, 0.00000, 5.700, 0.00000, 5.710, 0.00000
5.720, 0.00000, 5.730, 0.00000, 5.740, 0.00000, 5.750, 0.00000
5.760, 0.00000, 5.770, 0.00000, 5.780, 0.00000, 5.790, 0.00000
5.800, 0.00000, 5.810, 0.00000, 5.820, 0.00000, 5.830, 0.00000
5.840, 0.00000, 5.850, 0.00000, 5.860, 0.00000, 5.870, 0.00000
5.880, 0.00000, 5.890, 0.00000, 5.900, 0.00000, 5.910, 0.00000
5.920, 0.00000, 5.930, 0.00000, 5.940, 0.00000, 5.950, 0.00000
5.960, 0.00000, 5.970, 0.00000, 5.980, 0.00000, 5.990, 0.00000
6.000, 0.00000, 6.010, 760.45580, 6.020, 1520.91159, 6.030, 2281.36739
6.040, 3041.82319, 6.050, 3802.27899, 6.060, 3612.16504, 6.070, 3422.05109
6.080, 3231.93714, 6.090, 3041.82319, 6.100, 2851.70924, 6.110, 2661.59529
6.120, 2471.48134, 6.130, 2281.36739, 6.140, 2091.25344, 6.150, 1901.13949
6.160, 1711.02554, 6.170, 1520.91159, 6.180, 1330.79764, 6.190, 1140.68370
6.200, 950.56975, 6.210, 760.45580, 6.220, 570.34185, 6.230, 380.22790
6.240, 190.11395, 6.250, 0.00000, 6.260, 0.00000, 6.270, 0.00000
6.280, 0.00000, 6.290, 0.00000, 6.300, 0.00000, 6.310, 0.00000
6.320, 0.00000, 6.330, 0.00000, 6.340, 0.00000, 6.350, 0.00000
6.360, 0.00000, 6.370, 0.00000, 6.380, 0.00000, 6.390, 0.00000
6.400, 0.00000, 6.410, 0.00000, 6.420, 0.00000, 6.430, 0.00000
6.440, 0.00000, 6.450, 0.00000, 6.460, 0.00000, 6.470, 0.00000
6.480, 0.00000, 6.490, 0.00000, 6.500, 0.00000, 6.510, 0.00000
6.520, 0.00000, 6.530, 0.00000, 6.540, 0.00000, 6.550, 0.00000
6.560, 0.00000, 6.570, 0.00000, 6.580, 0.00000, 6.590, 0.00000
6.600, 0.00000, 6.610, 0.00000, 6.620, 0.00000, 6.630, 0.00000
6.640, 0.00000, 6.650, 0.00000, 6.660, 0.00000, 6.670, 0.00000
6.680, 0.00000, 6.690, 0.00000, 6.700, 0.00000, 6.710, 0.00000
6.720, 0.00000, 6.730, 0.00000, 6.740, 0.00000, 6.750, 0.00000
6.760, 0.00000, 6.770, 0.00000, 6.780, 0.00000, 6.790, 0.00000
6.800, 0.00000, 6.810, 0.00000, 6.820, 0.00000, 6.830, 0.00000
6.840, 0.00000, 6.850, 0.00000, 6.860, 0.00000, 6.870, 0.00000
6.880, 0.00000, 6.890, 0.00000, 6.900, 0.00000, 6.910, 0.00000
6.920, 0.00000, 6.930, 0.00000, 6.940, 0.00000, 6.950, 0.00000
6.960, 0.00000, 6.970, 0.00000, 6.980, 0.00000, 6.990, 0.00000
7.000, 0.00000, 7.010, 0.00000, 7.020, 0.00000, 7.030, 0.00000
7.040, 0.00000, 7.050, 0.00000, 7.060, 0.00000, 7.070, 0.00000
7.080, 0.00000, 7.090, 0.00000, 7.100, 0.00000, 7.110, 0.00000
7.120, 0.00000, 7.130, 0.00000, 7.140, 0.00000, 7.150, 0.00000
7.160, 0.00000, 7.170, 0.00000, 7.180, 0.00000, 7.190, 0.00000
7.200, 0.00000, 7.210, 0.00000, 7.220, 0.00000, 7.230, 0.00000
7.240, 0.00000, 7.250, 0.00000, 7.260, 0.00000, 7.270, 0.00000
7.280, 0.00000, 7.290, 0.00000, 7.300, 0.00000, 7.310, 0.00000
7.320, 0.00000, 7.330, 0.00000, 7.340, 0.00000, 7.350, 0.00000
7.360, 0.00000, 7.370, 0.00000, 7.380, 0.00000, 7.390, 0.00000
7.400, 0.00000, 7.410, 0.00000, 7.420, 0.00000, 7.430, 0.00000
7.440, 0.00000, 7.450, 0.00000, 7.460, 0.00000, 7.470, 0.00000
7.480, 0.00000, 7.490, 0.00000, 7.500, 0.00000, 7.510, 0.00000
7.520, 0.00000, 7.530, 0.00000, 7.540, 0.00000, 7.550, 0.00000
7.560, 0.00000, 7.570, 0.00000, 7.580, 0.00000, 7.590, 0.00000
7.600, 0.00000, 7.610, 0.00000, 7.620, 0.00000, 7.630, 0.00000
7.640, 0.00000, 7.650, 0.00000, 7.660, 0.00000, 7.670, 0.00000
7.680, 0.00000, 7.690, 0.00000, 7.700, 0.00000, 7.710, 0.00000
7.720, 0.00000, 7.730, 0.00000, 7.740, 0.00000, 7.750, 0.00000
7.760, 0.00000, 7.770, 0.00000, 7.780, 0.00000, 7.790, 0.00000
7.800, 0.00000, 7.810, 0.00000, 7.820, 0.00000, 7.830, 0.00000
7.840, 0.00000, 7.850, 0.00000, 7.860, 0.00000, 7.870, 0.00000
7.880, 0.00000, 7.890, 0.00000, 7.900, 0.00000, 7.910, 0.00000
7.920, 0.00000, 7.930, 0.00000, 7.940, 0.00000, 7.950, 0.00000
7.960, 0.00000, 7.970, 0.00000, 7.980, 0.00000, 7.990, 0.00000
8.000, 0.00000, 8.010, 688.73595, 8.020, 1377.47190, 8.030, 2066.20786
8.040, 2754.94381, 8.050, 3443.67976, 8.060, 3271.49577, 8.070, 3099.31178
8.080, 2927.12780, 8.090, 2754.94381, 8.100, 2582.75982, 8.110, 2410.57583
8.120, 2238.39184, 8.130, 2066.20786, 8.140, 1894.02387, 8.150, 1721.83988
8.160, 1549.65589, 8.170, 1377.47190, 8.180, 1205.28792, 8.190, 1033.10393
8.200, 860.91994, 8.210, 688.73595, 8.220, 516.55196, 8.230, 344.36798
8.240, 172.18399, 8.250, 0.00000, 8.260, 0.00000, 8.270, 0.00000
8.280, 0.00000, 8.290, 0.00000, 8.300, 0.00000, 8.310, 0.00000
8.320, 0.00000, 8.330, 0.00000, 8.340, 0.00000, 8.350, 0.00000
8.360, 0.00000, 8.370, 0.00000, 8.380, 0.00000, 8.390, 0.00000
8.400, 0.00000, 8.410, 0.00000, 8.420, 0.00000, 8.430, 0.00000
8.440, 0.00000, 8.450, 0.00000, 8.460, 0.00000, 8.470, 0.00000
8.480, 0.00000, 8.490, 0.00000, 8.500, 0.00000, 8.510, 0.00000
8.520, 0.00000, 8.530, 0.00000, 8.540, 0.00000, 8.550, 0.00000
8.560, 0.00000, 8.570, 0.00000, 8.580, 0.00000, 8.590, 0.00000
8.600, 0.00000, 8.610, 0.00000, 8.620, 0.00000, 8.630, 0.00000
8.640, 0.00000, 8.650, 0.00000, 8.660, 0.00000, 8.670, 0.00000
8.680, 0.00000, 8.690, 0.00000, 8.700, 0.00000, 8.710, 0.00000
8.720, 0.00000, 8.730, 0.00000, 8.740, 0.00000, 8.750, 0.00000
8.760, 0.00000, 8.770, 0.00000, 8.780, 0.00000, 8.790, 0.00000
8.800, 0.00000, 8.810, 0.00000, 8.820, 0.00000, 8.830, 0.00000
8.840, 0.00000, 8.850, 0.00000, 8.860, 0.00000, 8.870, 0.00000
8.880, 0.00000, 8.890, 0.00000, 8.900, 0.00000, 8.910, 0.00000
8.920, 0.00000, 8.930, 0.00000, 8.940, 0.00000, 8.950, 0.00000
8.960, 0.00000, 8.970, 0.00000, 8.980, 0.00000, 8.990, 0.00000
9.000, 0.00000, 9.010, 0.00000, 9.020, 0.00000, 9.030, 0.00000
9.040, 0.00000, 9.050, 0.00000, 9.060, 0.00000, 9.070, 0.00000
9.080, 0.00000, 9.090, 0.00000, 9.100, 0.00000, 9.110, 0.00000
9.120, 0.00000, 9.130, 0.00000, 9.140, 0.00000, 9.150, 0.00000
9.160, 0.00000, 9.170, 0.00000, 9.180, 0.00000, 9.190, 0.00000
9.200, 0.00000, 9.210, 0.00000, 9.220, 0.00000, 9.230, 0.00000
9.240, 0.00000, 9.250, 0.00000, 9.260, 0.00000, 9.270, 0.00000
9.280, 0.00000, 9.290, 0.00000, 9.300, 0.00000, 9.310, 0.00000
9.320, 0.00000, 9.330, 0.00000, 9.340, 0.00000, 9.350, 0.00000
9.360, 0.00000, 9.370, 0.00000, 9.380, 0.00000, 9.390, 0.00000
9.400, 0.00000, 9.410, 0.00000, 9.420, 0.00000, 9.430, 0.00000
9.440, 0.00000, 9.450, 0.00000, 9.460, 0.00000, 9.470, 0.00000
9.480, 0.00000, 9.490, 0.00000, 9.500, 0.00000, 9.510, 0.00000
9.520, 0.00000, 9.530, 0.00000, 9.540, 0.00000, 9.550, 0.00000
9.560, 0.00000, 9.570, 0.00000, 9.580, 0.00000, 9.590, 0.00000
9.600, 0.00000, 9.610, 0.00000, 9.620, 0.00000, 9.630, 0.00000
9.640, 0.00000, 9.650, 0.00000, 9.660, 0.00000, 9.670, 0.00000
9.680, 0.00000, 9.690, 0.00000, 9.700, 0.00000, 9.710, 0.00000
9.720, 0.00000, 9.730, 0.00000, 9.740, 0.00000, 9.750, 0.00000
9.760, 0.00000, 9.770, 0.00000, 9.780, 0.00000, 9.790, 0.00000
9.800, 0.00000, 9.810, 0.00000, 9.820, 0.00000, 9.830, 0.00000
9.840, 0.00000, 9.850, 0.00000, 9.860, 0.00000, 9.870, 0.00000
9.880, 0.00000, 9.890, 0.00000, 9.900, 0.00000, 9.910, 0.00000
9.920, 0.00000, 9.930, 0.00000, 9.940, 0.00000, 9.950, 0.00000
9.960, 0.00000, 9.970, 0.00000, 9.980, 0.00000, 9.990, 0.00000
*AMPLITUDE, NAME=ROW7
0.000, 0.00000, 0.010, 3031.90521, 0.020, 6063.81041, 0.030, 9095.71562
0.040, 12127.62082, 0.050, 15159.52603, 0.060, 14401.54973, 0.070, 13643.57342
0.080, 12885.59712, 0.090, 12127.62082, 0.100, 11369.64452, 0.110, 10611.66822
0.120, 9853.69192, 0.130, 9095.71562, 0.140, 8337.73931, 0.150, 7579.76301
0.160, 6821.78671, 0.170, 6063.81041, 0.180, 5305.83411, 0.190, 4547.85781
0.200, 3789.88151, 0.210, 3031.90521, 0.220, 2273.92890, 0.230, 1515.95260
0.240, 757.97630, 0.250, 0.00000, 0.260, 0.00000, 0.270, 0.00000
0.280, 0.00000, 0.290, 0.00000, 0.300, 0.00000, 0.310, 0.00000
0.320, 0.00000, 0.330, 0.00000, 0.340, 0.00000, 0.350, 0.00000
0.360, 0.00000, 0.370, 0.00000, 0.380, 0.00000, 0.390, 0.00000
0.400, 0.00000, 0.410, 0.00000, 0.420, 0.00000, 0.430, 0.00000
0.440, 0.00000, 0.450, 0.00000, 0.460, 0.00000, 0.470, 0.00000
0.480, 0.00000, 0.490, 0.00000, 0.500, 0.00000, 0.510, 0.00000
0.520, 0.00000, 0.530, 0.00000, 0.540, 0.00000, 0.550, 0.00000
0.560, 0.00000, 0.570, 0.00000, 0.580, 0.00000, 0.590, 0.00000
0.600, 0.00000, 0.610, 0.00000, 0.620, 0.00000, 0.630, 0.00000
0.640, 0.00000, 0.650, 0.00000, 0.660, 0.00000, 0.670, 0.00000
0.680, 0.00000, 0.690, 0.00000, 0.700, 0.00000, 0.710, 0.00000
0.720, 0.00000, 0.730, 0.00000, 0.740, 0.00000, 0.750, 0.00000
0.760, 0.00000, 0.770, 0.00000, 0.780, 0.00000, 0.790, 0.00000
0.800, 0.00000, 0.810, 0.00000, 0.820, 0.00000, 0.830, 0.00000
0.840, 0.00000, 0.850, 0.00000, 0.860, 0.00000, 0.870, 0.00000
0.880, 0.00000, 0.890, 0.00000, 0.900, 0.00000, 0.910, 0.00000
0.920, 0.00000, 0.930, 0.00000, 0.940, 0.00000, 0.950, 0.00000
0.960, 0.00000, 0.970, 0.00000, 0.980, 0.00000, 0.990, 0.00000
1.000, 0.00000, 1.010, 0.00000, 1.020, 0.00000, 1.030, 0.00000
1.040, 0.00000, 1.050, 0.00000, 1.060, 0.00000, 1.070, 0.00000
1.080, 0.00000, 1.090, 0.00000, 1.100, 0.00000, 1.110, 0.00000
1.120, 0.00000, 1.130, 0.00000, 1.140, 0.00000, 1.150, 0.00000
1.160, 0.00000, 1.170, 0.00000, 1.180, 0.00000, 1.190, 0.00000
1.200, 0.00000, 1.210, 0.00000, 1.220, 0.00000, 1.230, 0.00000
1.240, 0.00000, 1.250, 0.00000, 1.260, 0.00000, 1.270, 0.00000
1.280, 0.00000, 1.290, 0.00000, 1.300, 0.00000, 1.310, 0.00000
1.320, 0.00000, 1.330, 0.00000, 1.340, 0.00000, 1.350, 0.00000
1.360, 0.00000, 1.370, 0.00000, 1.380, 0.00000, 1.390, 0.00000
1.400, 0.00000, 1.410, 0.00000, 1.420, 0.00000, 1.430, 0.00000
1.440, 0.00000, 1.450, 0.00000, 1.460, 0.00000, 1.470, 0.00000
1.480, 0.00000, 1.490, 0.00000, 1.500, 0.00000, 1.510, 0.00000
1.520, 0.00000, 1.530, 0.00000, 1.540, 0.00000, 1.550, 0.00000
1.560, 0.00000, 1.570, 0.00000, 1.580, 0.00000, 1.590, 0.00000
1.600, 0.00000, 1.610, 0.00000, 1.620, 0.00000, 1.630, 0.00000
1.640, 0.00000, 1.650, 0.00000, 1.660, 0.00000, 1.670, 0.00000
1.680, 0.00000, 1.690, 0.00000, 1.700, 0.00000, 1.710, 0.00000
1.720, 0.00000, 1.730, 0.00000, 1.740, 0.00000, 1.750, 0.00000
1.760, 0.00000, 1.770, 0.00000, 1.780, 0.00000, 1.790, 0.00000
1.800, 0.00000, 1.810, 0.00000, 1.820, 0.00000, 1.830, 0.00000
1.840, 0.00000, 1.850, 0.00000, 1.860, 0.00000, 1.870, 0.00000
1.880, 0.00000, 1.890, 0.00000, 1.900, 0.00000, 1.910, 0.00000
1.920, 0.00000, 1.930, 0.00000, 1.940, 0.00000, 1.950, 0.00000
1.960, 0.00000, 1.970, 0.00000, 1.980, 0.00000, 1.990, 0.00000
2.000, 0.00000, 2.010, 2300.97033, 2.020, 4601.94066, 2.030, 6902.91098
2.040, 9203.88131, 2.050, 11504.85164, 2.060, 10929.60906, 2.070, 10354.36648
2.080, 9779.12389, 2.090, 9203.88131, 2.100, 8628.63873, 2.110, 8053.39615
2.120, 7478.15357, 2.130, 6902.91098, 2.140, 6327.66840, 2.150, 5752.42582
2.160, 5177.18324, 2.170, 4601.94066, 2.180, 4026.69807, 2.190, 3451.45549
2.200, 2876.21291, 2.210, 2300.97033, 2.220, 1725.72775, 2.230, 1150.48516
2.240, 575.24258, 2.250, 0.00000, 2.260, 0.00000, 2.270, 0.00000
2.280, 0.00000, 2.290, 0.00000, 2.300, 0.00000, 2.310, 0.00000
2.320, 0.00000, 2.330, 0.00000, 2.340, 0.00000, 2.350, 0.00000
2.360, 0.00000, 2.370, 0.00000, 2.380, 0.00000, 2.390, 0.00000
2.400, 0.00000, 2.410, 0.00000, 2.420, 0.00000, 2.430, 0.00000
2.440, 0.00000, 2.450, 0.00000, 2.460, 0.00000, 2.470, 0.00000
2.480, 0.00000, 2.490, 0.00000, 2.500, 0.00000, 2.510, 0.00000
2.520, 0.00000, 2.530, 0.00000, 2.540, 0.00000, 2.550, 0.00000
2.560, 0.00000, 2.570, 0.00000, 2.580, 0.00000, 2.590, 0.00000
2.600, 0.00000, 2.610, 0.00000, 2.620, 0.00000, 2.630, 0.00000
2.640, 0.00000, 2.650, 0.00000, 2.660, 0.00000, 2.670, 0.00000
2.680, 0.00000, 2.690, 0.00000, 2.700, 0.00000, 2.710, 0.00000
2.720, 0.00000, 2.730, 0.00000, 2.740, 0.00000, 2.750, 0.00000
2.760, 0.00000, 2.770, 0.00000, 2.780, 0.00000, 2.790, 0.00000
2.800, 0.00000, 2.810, 0.00000, 2.820, 0.00000, 2.830, 0.00000
2.840, 0.00000, 2.850, 0.00000, 2.860, 0.00000, 2.870, 0.00000
2.880, 0.00000, 2.890, 0.00000, 2.900, 0.00000, 2.910, 0.00000
2.920, 0.00000, 2.930, 0.00000, 2.940, 0.00000, 2.950, 0.00000
2.960, 0.00000, 2.970, 0.00000, 2.980, 0.00000, 2.990, 0.00000
3.000, 0.00000, 3.010, 0.00000, 3.020, 0.00000, 3.030, 0.00000
3.040, 0.00000, 3.050, 0.00000, 3.060, 0.00000, 3.070, 0.00000
3.080, 0.00000, 3.090, 0.00000, 3.100, 0.00000, 3.110, 0.00000
3.120, 0.00000, 3.130, 0.00000, 3.140, 0.00000, 3.150, 0.00000
3.160, 0.00000, 3.170, 0.00000, 3.180, 0.00000, 3.190, 0.00000
3.200, 0.00000, 3.210, 0.00000, 3.220, 0.00000, 3.230, 0.00000
3.240, 0.00000, 3.250, 0.00000, 3.260, 0.00000, 3.270, 0.00000
3.280, 0.00000, 3.290, 0.00000, 3.300, 0.00000, 3.310, 0.00000
3.320, 0.00000, 3.330, 0.00000, 3.340, 0.00000, 3.350, 0.00000
3.360, 0.00000, 3.370, 0.00000, 3.380, 0.00000, 3.390, 0.00000
3.400, 0.00000, 3.410, 0.00000, 3.420, 0.00000, 3.430, 0.00000
3.440, 0.00000, 3.450, 0.00000, 3.460, 0.00000, 3.470, 0.00000
3.480, 0.00000, 3.490, 0.00000, 3.500, 0.00000, 3.510, 0.00000
3.520, 0.00000, 3.530, 0.00000, 3.540, 0.00000, 3.550, 0.00000
3.560, 0.00000, 3.570, 0.00000, 3.580, 0.00000, 3.590, 0.00000
3.600, 0.00000, 3.610, 0.00000, 3.620, 0.00000, 3.630, 0.00000
3.640, 0.00000, 3.650, 0.00000, 3.660, 0.00000, 3.670, 0.00000
3.680, 0.00000, 3.690, 0.00000, 3.700, 0.00000, 3.710, 0.00000
3.720, 0.00000, 3.730, 0.00000, 3.740, 0.00000, 3.750, 0.00000
3.760, 0.00000, 3.770, 0.00000, 3.780, 0.00000, 3.790, 0.00000
3.800, 0.00000, 3.810, 0.00000, 3.820, 0.00000, 3.830, 0.00000
3.840, 0.00000, 3.850, 0.00000, 3.860, 0.00000, 3.870, 0.00000
3.880, 0.00000, 3.890, 0.00000, 3.900, 0.00000, 3.910, 0.00000
3.920, 0.00000, 3.930, 0.00000, 3.940, 0.00000, 3.950, 0.00000
3.960, 0.00000, 3.970, 0.00000, 3.980, 0.00000, 3.990, 0.00000
4.000, 0.00000, 4.010, 1942.23908, 4.020, 3884.47817, 4.030, 5826.71725
4.040, 7768.95633, 4.050, 9711.19542, 4.060, 9225.63564, 4.070, 8740.07587
4.080, 8254.51610, 4.090, 7768.95633, 4.100, 7283.39656, 4.110, 6797.83679
4.120, 6312.27702, 4.130, 5826.71725, 4.140, 5341.15748, 4.150, 4855.59771
4.160, 4370.03794, 4.170, 3884.47817, 4.180, 3398.91840, 4.190, 2913.35862
4.200, 2427.79885, 4.210, 1942.23908, 4.220, 1456.67931, 4.230, 971.11954
4.240, 485.55977, 4.250, 0.00000, 4.260, 0.00000, 4.270, 0.00000
4.280, 0.00000, 4.290, 0.00000, 4.300, 0.00000, 4.310, 0.00000
4.320, 0.00000, 4.330, 0.00000, 4.340, 0.00000, 4.350, 0.00000
4.360, 0.00000, 4.370, 0.00000, 4.380, 0.00000, 4.390, 0.00000
4.400, 0.00000, 4.410, 0.00000, 4.420, 0.00000, 4.430, 0.00000
4.440, 0.00000, 4.450, 0.00000, 4.460, 0.00000, 4.470, 0.00000
4.480, 0.00000, 4.490, 0.00000, 4.500, 0.00000, 4.510, 0.00000
4.520, 0.00000, 4.530, 0.00000, 4.540, 0.00000, 4.550, 0.00000
4.560, 0.00000, 4.570, 0.00000, 4.580, 0.00000, 4.590, 0.00000
4.600, 0.00000, 4.610, 0.00000, 4.620, 0.00000, 4.630, 0.00000
4.640, 0.00000, 4.650, 0.00000, 4.660, 0.00000, 4.670, 0.00000
4.680, 0.00000, 4.690, 0.00000, 4.700, 0.00000, 4.710, 0.00000
4.720, 0.00000, 4.730, 0.00000, 4.740, 0.00000, 4.750, 0.00000
4.760, 0.00000, 4.770, 0.00000, 4.780, 0.00000, 4.790, 0.00000
4.800, 0.00000, 4.810, 0.00000, 4.820, 0.00000, 4.830, 0.00000
4.840, 0.00000, 4.850, 0.00000, 4.860, 0.00000, 4.870, 0.00000
4.880, 0.00000, 4.890, 0.00000, 4.900, 0.00000, 4.910, 0.00000
4.920, 0.00000, 4.930, 0.00000, 4.940, 0.00000, 4.950, 0.00000
4.960, 0.00000, 4.970, 0.00000, 4.980, 0.00000, 4.990, 0.00000
5.000, 0.00000, 5.010, 0.00000, 5.020, 0.00000, 5.030, 0.00000
5.040, 0.00000, 5.050, 0.00000, 5.060, 0.00000, 5.070, 0.00000
5.080, 0.00000, 5.090, 0.00000, 5.100, 0.00000, 5.110, 0.00000
5.120, 0.00000, 5.130, 0.00000, 5.140, 0.00000, 5.150, 0.00000
5.160, 0.00000, 5.170, 0.00000, 5.180, 0.00000, 5.190, 0.00000
5.200, 0.00000, 5.210, 0.00000, 5.220, 0.00000, 5.230, 0.00000
5.240, 0.00000, 5.250, 0.00000, 5.260, 0.00000, 5.270, 0.00000
5.280, 0.00000, 5.290, 0.00000, 5.300, 0.00000, 5.310, 0.00000
5.320, 0.00000, 5.330, 0.00000, 5.340, 0.00000, 5.350, 0.00000
5.360, 0.00000, 5.370, 0.00000, 5.380, 0.00000, 5.390, 0.00000
5.400, 0.00000, 5.410, 0.00000, 5.420, 0.00000, 5.430, 0.00000
5.440, 0.00000, 5.450, 0.00000, 5.460, 0.00000, 5.470, 0.00000
5.480, 0.00000, 5.490, 0.00000, 5.500, 0.00000, 5.510, 0.00000
5.520, 0.00000, 5.530, 0.00000, 5.540, 0.00000, 5.550, 0.00000
5.560, 0.00000, 5.570, 0.00000, 5.580, 0.00000, 5.590, 0.00000
5.600, 0.00000, 5.610, 0.00000, 5.620, 0.00000, 5.630, 0.00000
5.640, 0.00000, 5.650, 0.00000, 5.660, 0.00000, 5.670, 0.00000
5.680, 0.00000, 5.690, 0.00000, 5.700, 0.00000, 5.710, 0.00000
5.720, 0.00000, 5.730, 0.00000, 5.740, 0.00000, 5.750, 0.00000
5.760, 0.00000, 5.770, 0.00000, 5.780, 0.00000, 5.790, 0.00000
5.800, 0.00000, 5.810, 0.00000, 5.820, 0.00000, 5.830, 0.00000
5.840, 0.00000, 5.850, 0.00000, 5.860, 0.00000, 5.870, 0.00000
5.880, 0.00000, 5.890, 0.00000, 5.900, 0.00000, 5.910, 0.00000
5.920, 0.00000, 5.930, 0.00000, 5.940, 0.00000, 5.950, 0.00000
5.960, 0.00000, 5.970, 0.00000, 5.980, 0.00000, 5.990, 0.00000
6.000, 0.00000, 6.010, 1715.20143, 6.020, 3430.40285, 6.030, 5145.60428
6.040, 6860.80570, 6.050, 8576.00713, 6.060, 8147.20677, 6.070, 7718.40642
6.080, 7289.60606, 6.090, 6860.80570, 6.100, 6432.00535, 6.110, 6003.20499
6.120, 5574.40463, 6.130, 5145.60428, 6.140, 4716.80392, 6.150, 4288.00356
6.160, 3859.20321, 6.170, 3430.40285, 6.180, 3001.60250, 6.190, 2572.80214
6.200, 2144.00178, 6.210, 1715.20143, 6.220, 1286.40107, 6.230, 857.60071
6.240, 428.80036, 6.250, 0.00000, 6.260, 0.00000, 6.270, 0.00000
6.280, 0.00000, 6.290, 0.00000, 6.300, 0.00000, 6.310, 0.00000
6.320, 0.00000, 6.330, 0.00000, 6.340, 0.00000, 6.350, 0.00000
6.360, 0.00000, 6.370, 0.00000, 6.380, 0.00000, 6.390, 0.00000
6.400, 0.00000, 6.410, 0.00000, 6.420, 0.00000, 6.430, 0.00000
6.440, 0.00000, 6.450, 0.00000, 6.460, 0.00000, 6.470, 0.00000
6.480, 0.00000, 6.490, 0.00000, 6.500, 0.00000, 6.510, 0.00000
6.520, 0.00000, 6.530, 0.00000, 6.540, 0.00000, 6.550, 0.00000
6.560, 0.00000, 6.570, 0.00000, 6.580, 0.00000, 6.590, 0.00000
6.600, 0.00000, 6.610, 0.00000, 6.620, 0.00000, 6.630, 0.00000
6.640, 0.00000, 6.650, 0.00000, 6.660, 0.00000, 6.670, 0.00000
6.680, 0.00000, 6.690, 0.00000, 6.700, 0.00000, 6.710, 0.00000
6.720, 0.00000, 6.730, 0.00000, 6.740, 0.00000, 6.750, 0.00000
6.760, 0.00000, 6.770, 0.00000, 6.780, 0.00000, 6.790, 0.00000
6.800, 0.00000, 6.810, 0.00000, 6.820, 0.00000, 6.830, 0.00000
6.840, 0.00000, 6.850, 0.00000, 6.860, 0.00000, 6.870, 0.00000
6.880, 0.00000, 6.890, 0.00000, 6.900, 0.00000, 6.910, 0.00000
6.920, 0.00000, 6.930, 0.00000, 6.940, 0.00000, 6.950, 0.00000
6.960, 0.00000, 6.970, 0.00000, 6.980, 0.00000, 6.990, 0.00000
7.000, 0.00000, 7.010, 0.00000, 7.020, 0.00000, 7.030, 0.00000
7.040, 0.00000, 7.050, 0.00000, 7.060, 0.00000, 7.070, 0.00000
7.080, 0.00000, 7.090, 0.00000, 7.100, 0.00000, 7.110, 0.00000
7.120, 0.00000, 7.130, 0.00000, 7.140, 0.00000, 7.150, 0.00000
7.160, 0.00000, 7.170, 0.00000, 7.180, 0.00000, 7.190, 0.00000
7.200, 0.00000, 7.210, 0.00000, 7.220, 0.00000, 7.230, 0.00000
7.240, 0.00000, 7.250, 0.00000, 7.260, 0.00000, 7.270, 0.00000
7.280, 0.00000, 7.290, 0.00000, 7.300, 0.00000, 7.310, 0.00000
7.320, 0.00000, 7.330, 0.00000, 7.340, 0.00000, 7.350, 0.00000
7.360, 0.00000, 7.370, 0.00000, 7.380, 0.00000, 7.390, 0.00000
7.400, 0.00000, 7.410, 0.00000, 7.420, 0.00000, 7.430, 0.00000
7.440, 0.00000, 7.450, 0.00000, 7.460, 0.00000, 7.470, 0.00000
7.480, 0.00000, 7.490, 0.00000, 7.500, 0.00000, 7.510, 0.00000
7.520, 0.00000, 7.530, 0.00000, 7.540, 0.00000, 7.550, 0.00000
7.560, 0.00000, 7.570, 0.00000, 7.580, 0.00000, 7.590, 0.00000
7.600, 0.00000, 7.610, 0.00000, 7.620, 0.00000, 7.630, 0.00000
7.640, 0.00000, 7.650, 0.00000, 7.660, 0.00000, 7.670, 0.00000
7.680, 0.00000, 7.690, 0.00000, 7.700, 0.00000, 7.710, 0.00000
7.720, 0.00000, 7.730, 0.00000, 7.740, 0.00000, 7.750, 0.00000
7.760, 0.00000, 7.770, 0.00000, 7.780, 0.00000, 7.790, 0.00000
7.800, 0.00000, 7.810, 0.00000, 7.820, 0.00000, 7.830, 0.00000
7.840, 0.00000, 7.850, 0.00000, 7.860, 0.00000, 7.870, 0.00000
7.880, 0.00000, 7.890, 0.00000, 7.900, 0.00000, 7.910, 0.00000
7.920, 0.00000, 7.930, 0.00000, 7.940, 0.00000, 7.950, 0.00000
7.960, 0.00000, 7.970, 0.00000, 7.980, 0.00000, 7.990, 0.00000
8.000, 0.00000, 8.010, 1553.43794, 8.020, 3106.87588, 8.030, 4660.31382
8.040, 6213.75176, 8.050, 7767.18970, 8.060, 7378.83021, 8.070, 6990.47073
8.080, 6602.11124, 8.090, 6213.75176, 8.100, 5825.39227, 8.110, 5437.03279
8.120, 5048.67330, 8.130, 4660.31382, 8.140, 4271.95433, 8.150, 3883.59485
8.160, 3495.23536, 8.170, 3106.87588, 8.180, 2718.51639, 8.190, 2330.15691
8.200, 1941.79742, 8.210, 1553.43794, 8.220, 1165.07845, 8.230, 776.71897
8.240, 388.35948, 8.250, 0.00000, 8.260, 0.00000, 8.270, 0.00000
8.280, 0.00000, 8.290, 0.00000, 8.300, 0.00000, 8.310, 0.00000
8.320, 0.00000, 8.330, 0.00000, 8.340, 0.00000, 8.350, 0.00000
8.360, 0.00000, 8.370, 0.00000, 8.380, 0.00000, 8.390, 0.00000
8.400, 0.00000, 8.410, 0.00000, 8.420, 0.00000, 8.430, 0.00000
8.440, 0.00000, 8.450, 0.00000, 8.460, 0.00000, 8.470, 0.00000
8.480, 0.00000, 8.490, 0.00000, 8.500, 0.00000, 8.510, 0.00000
8.520, 0.00000, 8.530, 0.00000, 8.540, 0.00000, 8.550, 0.00000
8.560, 0.00000, 8.570, 0.00000, 8.580, 0.00000, 8.590, 0.00000
8.600, 0.00000, 8.610, 0.00000, 8.620, 0.00000, 8.630, 0.00000
8.640, 0.00000, 8.650, 0.00000, 8.660, 0.00000, 8.670, 0.00000
8.680, 0.00000, 8.690, 0.00000, 8.700, 0.00000, 8.710, 0.00000
8.720, 0.00000, 8.730, 0.00000, 8.740, 0.00000, 8.750, 0.00000
8.760, 0.00000, 8.770, 0.00000, 8.780, 0.00000, 8.790, 0.00000
8.800, 0.00000, 8.810, 0.00000, 8.820, 0.00000, 8.830, 0.00000
8.840, 0.00000, 8.850, 0.00000, 8.860, 0.00000, 8.870, 0.00000
8.880, 0.00000, 8.890, 0.00000, 8.900, 0.00000, 8.910, 0.00000
8.920, 0.00000, 8.930, 0.00000, 8.940, 0.00000, 8.950, 0.00000
8.960, 0.00000, 8.970, 0.00000, 8.980, 0.00000, 8.990, 0.00000
9.000, 0.00000, 9.010, 0.00000, 9.020, 0.00000, 9.030, 0.00000
9.040, 0.00000, 9.050, 0.00000, 9.060, 0.00000, 9.070, 0.00000
9.080, 0.00000, 9.090, 0.00000, 9.100, 0.00000, 9.110, 0.00000
9.120, 0.00000, 9.130, 0.00000, 9.140, 0.00000, 9.150, 0.00000
9.160, 0.00000, 9.170, 0.00000, 9.180, 0.00000, 9.190, 0.00000
9.200, 0.00000, 9.210, 0.00000, 9.220, 0.00000, 9.230, 0.00000
9.240, 0.00000, 9.250, 0.00000, 9.260, 0.00000, 9.270, 0.00000
9.280, 0.00000, 9.290, 0.00000, 9.300, 0.00000, 9.310, 0.00000
9.320, 0.00000, 9.330, 0.00000, 9.340, 0.00000, 9.350, 0.00000
9.360, 0.00000, 9.370, 0.00000, 9.380, 0.00000, 9.390, 0.00000
9.400, 0.00000, 9.410, 0.00000, 9.420, 0.00000, 9.430, 0.00000
9.440, 0.00000, 9.450, 0.00000, 9.460, 0.00000, 9.470, 0.00000
9.480, 0.00000, 9.490, 0.00000, 9.500, 0.00000, 9.510, 0.00000
9.520, 0.00000, 9.530, 0.00000, 9.540, 0.00000, 9.550, 0.00000
9.560, 0.00000, 9.570, 0.00000, 9.580, 0.00000, 9.590, 0.00000
9.600, 0.00000, 9.610, 0.00000, 9.620, 0.00000, 9.630, 0.00000
9.640, 0.00000, 9.650, 0.00000, 9.660, 0.00000, 9.670, 0.00000
9.680, 0.00000, 9.690, 0.00000, 9.700, 0.00000, 9.710, 0.00000
9.720, 0.00000, 9.730, 0.00000, 9.740, 0.00000, 9.750, 0.00000
9.760, 0.00000, 9.770, 0.00000, 9.780, 0.00000, 9.790, 0.00000
9.800, 0.00000, 9.810, 0.00000, 9.820, 0.00000, 9.830, 0.00000
9.840, 0.00000, 9.850, 0.00000, 9.860, 0.00000, 9.870, 0.00000
9.880, 0.00000, 9.890, 0.00000, 9.900, 0.00000, 9.910, 0.00000
9.920, 0.00000, 9.930, 0.00000, 9.940, 0.00000, 9.950, 0.00000
9.960, 0.00000, 9.970, 0.00000, 9.980, 0.00000, 9.990, 0.00000
*AMPLITUDE, NAME=ROW8
0.000, 0.00000, 0.010, 2992.07348, 0.020, 5984.14697, 0.030, 8976.22045
0.040, 11968.29393, 0.050, 14960.36742, 0.060, 14212.34904, 0.070, 13464.33067
0.080, 12716.31230, 0.090, 11968.29393, 0.100, 11220.27556, 0.110, 10472.25719
0.120, 9724.23882, 0.130, 8976.22045, 0.140, 8228.20208, 0.150, 7480.18371
0.160, 6732.16534, 0.170, 5984.14697, 0.180, 5236.12860, 0.190, 4488.11022
0.200, 3740.09185, 0.210, 2992.07348, 0.220, 2244.05511, 0.230, 1496.03674
0.240, 748.01837, 0.250, 0.00000, 0.260, 0.00000, 0.270, 0.00000
0.280, 0.00000, 0.290, 0.00000, 0.300, 0.00000, 0.310, 0.00000
0.320, 0.00000, 0.330, 0.00000, 0.340, 0.00000, 0.350, 0.00000
0.360, 0.00000, 0.370, 0.00000, 0.380, 0.00000, 0.390, 0.00000
0.400, 0.00000, 0.410, 0.00000, 0.420, 0.00000, 0.430, 0.00000
0.440, 0.00000, 0.450, 0.00000, 0.460, 0.00000, 0.470, 0.00000
0.480, 0.00000, 0.490, 0.00000, 0.500, 0.00000, 0.510, 0.00000
0.520, 0.00000, 0.530, 0.00000, 0.540, 0.00000, 0.550, 0.00000
0.560, 0.00000, 0.570, 0.00000, 0.580, 0.00000, 0.590, 0.00000
0.600, 0.00000, 0.610, 0.00000, 0.620, 0.00000, 0.630, 0.00000
0.640, 0.00000, 0.650, 0.00000, 0.660, 0.00000, 0.670, 0.00000
0.680, 0.00000, 0.690, 0.00000, 0.700, 0.00000, 0.710, 0.00000
0.720, 0.00000, 0.730, 0.00000, 0.740, 0.00000, 0.750, 0.00000
0.760, 0.00000, 0.770, 0.00000, 0.780, 0.00000, 0.790, 0.00000
0.800, 0.00000, 0.810, 0.00000, 0.820, 0.00000, 0.830, 0.00000
0.840, 0.00000, 0.850, 0.00000, 0.860, 0.00000, 0.870, 0.00000
0.880, 0.00000, 0.890, 0.00000, 0.900, 0.00000, 0.910, 0.00000
0.920, 0.00000, 0.930, 0.00000, 0.940, 0.00000, 0.950, 0.00000
0.960, 0.00000, 0.970, 0.00000, 0.980, 0.00000, 0.990, 0.00000
1.000, 0.00000, 1.010, 0.00000, 1.020, 0.00000, 1.030, 0.00000
1.040, 0.00000, 1.050, 0.00000, 1.060, 0.00000, 1.070, 0.00000
1.080, 0.00000, 1.090, 0.00000, 1.100, 0.00000, 1.110, 0.00000
1.120, 0.00000, 1.130, 0.00000, 1.140, 0.00000, 1.150, 0.00000
1.160, 0.00000, 1.170, 0.00000, 1.180, 0.00000, 1.190, 0.00000
1.200, 0.00000, 1.210, 0.00000, 1.220, 0.00000, 1.230, 0.00000
1.240, 0.00000, 1.250, 0.00000, 1.260, 0.00000, 1.270, 0.00000
1.280, 0.00000, 1.290, 0.00000, 1.300, 0.00000, 1.310, 0.00000
1.320, 0.00000, 1.330, 0.00000, 1.340, 0.00000, 1.350, 0.00000
1.360, 0.00000, 1.370, 0.00000, 1.380, 0.00000, 1.390, 0.00000
1.400, 0.00000, 1.410, 0.00000, 1.420, 0.00000, 1.430, 0.00000
1.440, 0.00000, 1.450, 0.00000, 1.460, 0.00000, 1.470, 0.00000
1.480, 0.00000, 1.490, 0.00000, 1.500, 0.00000, 1.510, 0.00000
1.520, 0.00000, 1.530, 0.00000, 1.540, 0.00000, 1.550, 0.00000
1.560, 0.00000, 1.570, 0.00000, 1.580, 0.00000, 1.590, 0.00000
1.600, 0.00000, 1.610, 0.00000, 1.620, 0.00000, 1.630, 0.00000
1.640, 0.00000, 1.650, 0.00000, 1.660, 0.00000, 1.670, 0.00000
1.680, 0.00000, 1.690, 0.00000, 1.700, 0.00000, 1.710, 0.00000
1.720, 0.00000, 1.730, 0.00000, 1.740, 0.00000, 1.750, 0.00000
1.760, 0.00000, 1.770, 0.00000, 1.780, 0.00000, 1.790, 0.00000
1.800, 0.00000, 1.810, 0.00000, 1.820, 0.00000, 1.830, 0.00000
1.840, 0.00000, 1.850, 0.00000, 1.860, 0.00000, 1.870, 0.00000
1.880, 0.00000, 1.890, 0.00000, 1.900, 0.00000, 1.910, 0.00000
1.920, 0.00000, 1.930, 0.00000, 1.940, 0.00000, 1.950, 0.00000
1.960, 0.00000, 1.970, 0.00000, 1.980, 0.00000, 1.990, 0.00000
2.000, 0.00000, 2.010, 3689.93885, 2.020, 7379.87770, 2.030, 11069.81655
2.040, 14759.75540, 2.050, 18449.69425, 2.060, 17527.20954, 2.070, 16604.72482
2.080, 15682.24011, 2.090, 14759.75540, 2.100, 13837.27069, 2.110, 12914.78597
2.120, 11992.30126, 2.130, 11069.81655, 2.140, 10147.33184, 2.150, 9224.84712
2.160, 8302.36241, 2.170, 7379.87770, 2.180, 6457.39299, 2.190, 5534.90827
2.200, 4612.42356, 2.210, 3689.93885, 2.220, 2767.45414, 2.230, 1844.96942
2.240, 922.48471, 2.250, 0.00000, 2.260, 0.00000, 2.270, 0.00000
2.280, 0.00000, 2.290, 0.00000, 2.300, 0.00000, 2.310, 0.00000
2.320, 0.00000, 2.330, 0.00000, 2.340, 0.00000, 2.350, 0.00000
2.360, 0.00000, 2.370, 0.00000, 2.380, 0.00000, 2.390, 0.00000
2.400, 0.00000, 2.410, 0.00000, 2.420, 0.00000, 2.430, 0.00000
2.440, 0.00000, 2.450, 0.00000, 2.460, 0.00000, 2.470, 0.00000
2.480, 0.00000, 2.490, 0.00000, 2.500, 0.00000, 2.510, 0.00000
2.520, 0.00000, 2.530, 0.00000, 2.540, 0.00000, 2.550, 0.00000
2.560, 0.00000, 2.570, 0.00000, 2.580, 0.00000, 2.590, 0.00000
2.600, 0.00000, 2.610, 0.00000, 2.620, 0.00000, 2.630, 0.00000
2.640, 0.00000, 2.650, 0.00000, 2.660, 0.00000, 2.670, 0.00000
2.680, 0.00000, 2.690, 0.00000, 2.700, 0.00000, 2.710, 0.00000
2.720, 0.00000, 2.730, 0.00000, 2.740, 0.00000, 2.750, 0.00000
2.760, 0.00000, 2.770, 0.00000, 2.780, 0.00000, 2.790, 0.00000
2.800, 0.00000, 2.810, 0.00000, 2.820, 0.00000, 2.830, 0.00000
2.840, 0.00000, 2.850, 0.00000, 2.860, 0.00000, 2.870, 0.00000
2.880, 0.00000, 2.890, 0.00000, 2.900, 0.00000, 2.910, 0.00000
2.920, 0.00000, 2.930, 0.00000, 2.940, 0.00000, 2.950, 0.00000
2.960, 0.00000, 2.970, 0.00000, 2.980, 0.00000, 2.990, 0.00000
3.000, 0.00000, 3.010, 0.00000, 3.020, 0.00000, 3.030, 0.00000
3.040, 0.00000, 3.050, 0.00000, 3.060, 0.00000, 3.070, 0.00000
3.080, 0.00000, 3.090, 0.00000, 3.100, 0.00000, 3.110, 0.00000
3.120, 0.00000, 3.130, 0.00000, 3.140, 0.00000, 3.150, 0.00000
3.160, 0.00000, 3.170, 0.00000, 3.180, 0.00000, 3.190, 0.00000
3.200, 0.00000, 3.210, 0.00000, 3.220, 0.00000, 3.230, 0.00000
3.240, 0.00000, 3.250, 0.00000, 3.260, 0.00000, 3.270, 0.00000
3.280, 0.00000, 3.290, 0.00000, 3.300, 0.00000, 3.310, 0.00000
3.320, 0.00000, 3.330, 0.00000, 3.340, 0.00000, 3.350, 0.00000
3.360, 0.00000, 3.370, 0.00000, 3.380, 0.00000, 3.390, 0.00000
3.400, 0.00000, 3.410, 0.00000, 3.420, 0.00000, 3.430, 0.00000
3.440, 0.00000, 3.450, 0.00000, 3.460, 0.00000, 3.470, 0.00000
3.480, 0.00000, 3.490, 0.00000, 3.500, 0.00000, 3.510, 0.00000
3.520, 0.00000, 3.530, 0.00000, 3.540, 0.00000, 3.550, 0.00000
3.560, 0.00000, 3.570, 0.00000, 3.580, 0.00000, 3.590, 0.00000
3.600, 0.00000, 3.610, 0.00000, 3.620, 0.00000, 3.630, 0.00000
3.640, 0.00000, 3.650, 0.00000, 3.660, 0.00000, 3.670, 0.00000
3.680, 0.00000, 3.690, 0.00000, 3.700, 0.00000, 3.710, 0.00000
3.720, 0.00000, 3.730, 0.00000, 3.740, 0.00000, 3.750, 0.00000
3.760, 0.00000, 3.770, 0.00000, 3.780, 0.00000, 3.790, 0.00000
3.800, 0.00000, 3.810, 0.00000, 3.820, 0.00000, 3.830, 0.00000
3.840, 0.00000, 3.850, 0.00000, 3.860, 0.00000, 3.870, 0.00000
3.880, 0.00000, 3.890, 0.00000, 3.900, 0.00000, 3.910, 0.00000
3.920, 0.00000, 3.930, 0.00000, 3.940, 0.00000, 3.950, 0.00000
3.960, 0.00000, 3.970, 0.00000, 3.980, 0.00000, 3.990, 0.00000
4.000, 0.00000, 4.010, 3761.44577, 4.020, 7522.89154, 4.030, 11284.33731
4.040, 15045.78307, 4.050, 18807.22884, 4.060, 17866.86740, 4.070, 16926.50596
4.080, 15986.14452, 4.090, 15045.78307, 4.100, 14105.42163, 4.110, 13165.06019
4.120, 12224.69875, 4.130, 11284.33731, 4.140, 10343.97586, 4.150, 9403.61442
4.160, 8463.25298, 4.170, 7522.89154, 4.180, 6582.53010, 4.190, 5642.16865
4.200, 4701.80721, 4.210, 3761.44577, 4.220, 2821.08433, 4.230, 1880.72288
4.240, 940.36144, 4.250, 0.00000, 4.260, 0.00000, 4.270, 0.00000
4.280, 0.00000, 4.290, 0.00000, 4.300, 0.00000, 4.310, 0.00000
4.320, 0.00000, 4.330, 0.00000, 4.340, 0.00000, 4.350, 0.00000
4.360, 0.00000, 4.370, 0.00000, 4.380, 0.00000, 4.390, 0.00000
4.400, 0.00000, 4.410, 0.00000, 4.420, 0.00000, 4.430, 0.00000
4.440, 0.00000, 4.450, 0.00000, 4.460, 0.00000, 4.470, 0.00000
4.480, 0.00000, 4.490, 0.00000, 4.500, 0.00000, 4.510, 0.00000
4.520, 0.00000, 4.530, 0.00000, 4.540, 0.00000, 4.550, 0.00000
4.560, 0.00000, 4.570, 0.00000, 4.580, 0.00000, 4.590, 0.00000
4.600, 0.00000, 4.610, 0.00000, 4.620, 0.00000, 4.630, 0.00000
4.640, 0.00000, 4.650, 0.00000, 4.660, 0.00000, 4.670, 0.00000
4.680, 0.00000, 4.690, 0.00000, 4.700, 0.00000, 4.710, 0.00000
4.720, 0.00000, 4.730, 0.00000, 4.740, 0.00000, 4.750, 0.00000
4.760, 0.00000, 4.770, 0.00000, 4.780, 0.00000, 4.790, 0.00000
4.800, 0.00000, 4.810, 0.00000, 4.820, 0.00000, 4.830, 0.00000
4.840, 0.00000, 4.850, 0.00000, 4.860, 0.00000, 4.870, 0.00000
4.880, 0.00000, 4.890, 0.00000, 4.900, 0.00000, 4.910, 0.00000
4.920, 0.00000, 4.930, 0.00000, 4.940, 0.00000, 4.950, 0.00000
4.960, 0.00000, 4.970, 0.00000, 4.980, 0.00000, 4.990, 0.00000
5.000, 0.00000, 5.010, 0.00000, 5.020, 0.00000, 5.030, 0.00000
5.040, 0.00000, 5.050, 0.00000, 5.060, 0.00000, 5.070, 0.00000
5.080, 0.00000, 5.090, 0.00000, 5.100, 0.00000, 5.110, 0.00000
5.120, 0.00000, 5.130, 0.00000, 5.140, 0.00000, 5.150, 0.00000
5.160, 0.00000, 5.170, 0.00000, 5.180, 0.00000, 5.190, 0.00000
5.200, 0.00000, 5.210, 0.00000, 5.220, 0.00000, 5.230, 0.00000
5.240, 0.00000, 5.250, 0.00000, 5.260, 0.00000, 5.270, 0.00000
5.280, 0.00000, 5.290, 0.00000, 5.300, 0.00000, 5.310, 0.00000
5.320, 0.00000, 5.330, 0.00000, 5.340, 0.00000, 5.350, 0.00000
5.360, 0.00000, 5.370, 0.00000, 5.380, 0.00000, 5.390, 0.00000
5.400, 0.00000, 5.410, 0.00000, 5.420, 0.00000, 5.430, 0.00000
5.440, 0.00000, 5.450, 0.00000, 5.460, 0.00000, 5.470, 0.00000
5.480, 0.00000, 5.490, 0.00000, 5.500, 0.00000, 5.510, 0.00000
5.520, 0.00000, 5.530, 0.00000, 5.540, 0.00000, 5.550, 0.00000
5.560, 0.00000, 5.570, 0.00000, 5.580, 0.00000, 5.590, 0.00000
5.600, 0.00000, 5.610, 0.00000, 5.620, 0.00000, 5.630, 0.00000
5.640, 0.00000, 5.650, 0.00000, 5.660, 0.00000, 5.670, 0.00000
5.680, 0.00000, 5.690, 0.00000, 5.700, 0.00000, 5.710, 0.00000
5.720, 0.00000, 5.730, 0.00000, 5.740, 0.00000, 5.750, 0.00000
5.760, 0.00000, 5.770, 0.00000, 5.780, 0.00000, 5.790, 0.00000
5.800, 0.00000, 5.810, 0.00000, 5.820, 0.00000, 5.830, 0.00000
5.840, 0.00000, 5.850, 0.00000, 5.860, 0.00000, 5.870, 0.00000
5.880, 0.00000, 5.890, 0.00000, 5.900, 0.00000, 5.910, 0.00000
5.920, 0.00000, 5.930, 0.00000, 5.940, 0.00000, 5.950, 0.00000
5.960, 0.00000, 5.970, 0.00000, 5.980, 0.00000, 5.990, 0.00000
6.000, 0.00000, 6.010, 3644.66090, 6.020, 7289.32180, 6.030, 10933.98270
6.040, 14578.64360, 6.050, 18223.30449, 6.060, 17312.13927, 6.070, 16400.97405
6.080, 15489.80882, 6.090, 14578.64360, 6.100, 13667.47837, 6.110, 12756.31315
6.120, 11845.14792, 6.130, 10933.98270, 6.140, 10022.81747, 6.150, 9111.65225
6.160, 8200.48702, 6.170, 7289.32180, 6.180, 6378.15657, 6.190, 5466.99135
6.200, 4555.82612, 6.210, 3644.66090, 6.220, 2733.49567, 6.230, 1822.33045
6.240, 911.16522, 6.250, 0.00000, 6.260, 0.00000, 6.270, 0.00000
6.280, 0.00000, 6.290, 0.00000, 6.300, 0.00000, 6.310, 0.00000
6.320, 0.00000, 6.330, 0.00000, 6.340, 0.00000, 6.350, 0.00000
6.360, 0.00000, 6.370, 0.00000, 6.380, 0.00000, 6.390, 0.00000
6.400, 0.00000, 6.410, 0.00000, 6.420, 0.00000, 6.430, 0.00000
6.440, 0.00000, 6.450, 0.00000, 6.460, 0.00000, 6.470, 0.00000
6.480, 0.00000, 6.490, 0.00000, 6.500, 0.00000, 6.510, 0.00000
6.520, 0.00000, 6.530, 0.00000, 6.540, 0.00000, 6.550, 0.00000
6.560, 0.00000, 6.570, 0.00000, 6.580, 0.00000, 6.590, 0.00000
6.600, 0.00000, 6.610, 0.00000, 6.620, 0.00000, 6.630, 0.00000
6.640, 0.00000, 6.650, 0.00000, 6.660, 0.00000, 6.670, 0.00000
6.680, 0.00000, 6.690, 0.00000, 6.700, 0.00000, 6.710, 0.00000
6.720, 0.00000, 6.730, 0.00000, 6.740, 0.00000, 6.750, 0.00000
6.760, 0.00000, 6.770, 0.00000, 6.780, 0.00000, 6.790, 0.00000
6.800, 0.00000, 6.810, 0.00000, 6.820, 0.00000, 6.830, 0.00000
6.840, 0.00000, 6.850, 0.00000, 6.860, 0.00000, 6.870, 0.00000
6.880, 0.00000, 6.890, 0.00000, 6.900, 0.00000, 6.910, 0.00000
6.920, 0.00000, 6.930, 0.00000, 6.940, 0.00000, 6.950, 0.00000
6.960, 0.00000, 6.970, 0.00000, 6.980, 0.00000, 6.990, 0.00000
7.000, 0.00000, 7.010, 0.00000, 7.020, 0.00000, 7.030, 0.00000
7.040, 0.00000, 7.050, 0.00000, 7.060, 0.00000, 7.070, 0.00000
7.080, 0.00000, 7.090, 0.00000, 7.100, 0.00000, 7.110, 0.00000
7.120, 0.00000, 7.130, 0.00000, 7.140, 0.00000, 7.150, 0.00000
7.160, 0.00000, 7.170, 0.00000, 7.180, 0.00000, 7.190, 0.00000
7.200, 0.00000, 7.210, 0.00000, 7.220, 0.00000, 7.230, 0.00000
7.240, 0.00000, 7.250, 0.00000, 7.260, 0.00000, 7.270, 0.00000
7.280, 0.00000, 7.290, 0.00000, 7.300, 0.00000, 7.310, 0.00000
7.320, 0.00000, 7.330, 0.00000, 7.340, 0.00000, 7.350, 0.00000
7.360, 0.00000, 7.370, 0.00000, 7.380, 0.00000, 7.390, 0.00000
7.400, 0.00000, 7.410, 0.00000, 7.420, 0.00000, 7.430, 0.00000
7.440, 0.00000, 7.450, 0.00000, 7.460, 0.00000, 7.470, 0.00000
7.480, 0.00000, 7.490, 0.00000, 7.500, 0.00000, 7.510, 0.00000
7.520, 0.00000, 7.530, 0.00000, 7.540, 0.00000, 7.550, 0.00000
7.560, 0.00000, 7.570, 0.00000, 7.580, 0.00000, 7.590, 0.00000
7.600, 0.00000, 7.610, 0.00000, 7.620, 0.00000, 7.630, 0.00000
7.640, 0.00000, 7.650, 0.00000, 7.660, 0.00000, 7.670, 0.00000
7.680, 0.00000, 7.690, 0.00000, 7.700, 0.00000, 7.710, 0.00000
7.720, 0.00000, 7.730, 0.00000, 7.740, 0.00000, 7.750, 0.00000
7.760, 0.00000, 7.770, 0.00000, 7.780, 0.00000, 7.790, 0.00000
7.800, 0.00000, 7.810, 0.00000, 7.820, 0.00000, 7.830, 0.00000
7.840, 0.00000, 7.850, 0.00000, 7.860, 0.00000, 7.870, 0.00000
7.880, 0.00000, 7.890, 0.00000, 7.900, 0.00000, 7.910, 0.00000
7.920, 0.00000, 7.930, 0.00000, 7.940, 0.00000, 7.950, 0.00000
7.960, 0.00000, 7.970, 0.00000, 7.980, 0.00000, 7.990, 0.00000
8.000, 0.00000, 8.010, 3450.46939, 8.020, 6900.93877, 8.030, 10351.40816
8.040, 13801.87755, 8.050, 17252.34693, 8.060, 16389.72959, 8.070, 15527.11224
8.080, 14664.49489, 8.090, 13801.87755, 8.100, 12939.26020, 8.110, 12076.64285
8.120, 11214.02551, 8.130, 10351.40816, 8.140, 9488.79081, 8.150, 8626.17347
8.160, 7763.55612, 8.170, 6900.93877, 8.180, 6038.32143, 8.190, 5175.70408
8.200, 4313.08673, 8.210, 3450.46939, 8.220, 2587.85204, 8.230, 1725.23469
8.240, 862.61735, 8.250, 0.00000, 8.260, 0.00000, 8.270, 0.00000
8.280, 0.00000, 8.290, 0.00000, 8.300, 0.00000, 8.310, 0.00000
8.320, 0.00000, 8.330, 0.00000, 8.340, 0.00000, 8.350, 0.00000
8.360, 0.00000, 8.370, 0.00000, 8.380, 0.00000, 8.390, 0.00000
8.400, 0.00000, 8.410, 0.00000, 8.420, 0.00000, 8.430, 0.00000
8.440, 0.00000, 8.450, 0.00000, 8.460, 0.00000, 8.470, 0.00000
8.480, 0.00000, 8.490, 0.00000, 8.500, 0.00000, 8.510, 0.00000
8.520, 0.00000, 8.530, 0.00000, 8.540, 0.00000, 8.550, 0.00000
8.560, 0.00000, 8.570, 0.00000, 8.580, 0.00000, 8.590, 0.00000
8.600, 0.00000, 8.610, 0.00000, 8.620, 0.00000, 8.630, 0.00000
8.640, 0.00000, 8.650, 0.00000, 8.660, 0.00000, 8.670, 0.00000
8.680, 0.00000, 8.690, 0.00000, 8.700, 0.00000, 8.710, 0.00000
8.720, 0.00000, 8.730, 0.00000, 8.740, 0.00000, 8.750, 0.00000
8.760, 0.00000, 8.770, 0.00000, 8.780, 0.00000, 8.790, 0.00000
8.800, 0.00000, 8.810, 0.00000, 8.820, 0.00000, 8.830, 0.00000
8.840, 0.00000, 8.850, 0.00000, 8.860, 0.00000, 8.870, 0.00000
8.880, 0.00000, 8.890, 0.00000, 8.900, 0.00000, 8.910, 0.00000
8.920, 0.00000, 8.930, 0.00000, 8.940, 0.00000, 8.950, 0.00000
8.960, 0.00000, 8.970, 0.00000, 8.980, 0.00000, 8.990, 0.00000
9.000, 0.00000, 9.010, 0.00000, 9.020, 0.00000, 9.030, 0.00000
9.040, 0.00000, 9.050, 0.00000, 9.060, 0.00000, 9.070, 0.00000
9.080, 0.00000, 9.090, 0.00000, 9.100, 0.00000, 9.110, 0.00000
9.120, 0.00000, 9.130, 0.00000, 9.140, 0.00000, 9.150, 0.00000
9.160, 0.00000, 9.170, 0.00000, 9.180, 0.00000, 9.190, 0.00000
9.200, 0.00000, 9.210, 0.00000, 9.220, 0.00000, 9.230, 0.00000
9.240, 0.00000, 9.250, 0.00000, 9.260, 0.00000, 9.270, 0.00000
9.280, 0.00000, 9.290, 0.00000, 9.300, 0.00000, 9.310, 0.00000
9.320, 0.00000, 9.330, 0.00000, 9.340, 0.00000, 9.350, 0.00000
9.360, 0.00000, 9.370, 0.00000, 9.380, 0.00000, 9.390, 0.00000
9.400, 0.00000, 9.410, 0.00000, 9.420, 0.00000, 9.430, 0.00000
9.440, 0.00000, 9.450, 0.00000, 9.460, 0.00000, 9.470, 0.00000
9.480, 0.00000, 9.490, 0.00000, 9.500, 0.00000, 9.510, 0.00000
9.520, 0.00000, 9.530, 0.00000, 9.540, 0.00000, 9.550, 0.00000
9.560, 0.00000, 9.570, 0.00000, 9.580, 0.00000, 9.590, 0.00000
9.600, 0.00000, 9.610, 0.00000, 9.620, 0.00000, 9.630, 0.00000
9.640, 0.00000, 9.650, 0.00000, 9.660, 0.00000, 9.670, 0.00000
9.680, 0.00000, 9.690, 0.00000, 9.700, 0.00000, 9.710, 0.00000
9.720, 0.00000, 9.730, 0.00000, 9.740, 0.00000, 9.750, 0.00000
9.760, 0.00000, 9.770, 0.00000, 9.780, 0.00000, 9.790, 0.00000
9.800, 0.00000, 9.810, 0.00000, 9.820, 0.00000, 9.830, 0.00000
9.840, 0.00000, 9.850, 0.00000, 9.860, 0.00000, 9.870, 0.00000
9.880, 0.00000, 9.890, 0.00000, 9.900, 0.00000, 9.910, 0.00000
9.920, 0.00000, 9.930, 0.00000, 9.940, 0.00000, 9.950, 0.00000
9.960, 0.00000, 9.970, 0.00000, 9.980, 0.00000, 9.990, 0.00000
*AMPLITUDE, NAME=ROW9
0.000, 0.00000, 0.010, -1350.34808, 0.020, -2700.69616, 0.030, -4051.04424
0.040, -5401.39232, 0.050, -6751.74040, 0.060, -6414.15338, 0.070, -6076.56636
0.080, -5738.97934, 0.090, -5401.39232, 0.100, -5063.80530, 0.110, -4726.21828
0.120, -4388.63126, 0.130, -4051.04424, 0.140, -3713.45722, 0.150, -3375.87020
0.160, -3038.28318, 0.170, -2700.69616, 0.180, -2363.10914, 0.190, -2025.52212
0.200, -1687.93510, 0.210, -1350.34808, 0.220, -1012.76106, 0.230, -675.17404
0.240, -337.58702, 0.250, 0.00000, 0.260, 0.00000, 0.270, 0.00000
0.280, 0.00000, 0.290, 0.00000, 0.300, 0.00000, 0.310, 0.00000
0.320, 0.00000, 0.330, 0.00000, 0.340, 0.00000, 0.350, 0.00000
0.360, 0.00000, 0.370, 0.00000, 0.380, 0.00000, 0.390, 0.00000
0.400, 0.00000, 0.410, 0.00000, 0.420, 0.00000, 0.430, 0.00000
0.440, 0.00000, 0.450, 0.00000, 0.460, 0.00000, 0.470, 0.00000
0.480, 0.00000, 0.490, 0.00000, 0.500, 0.00000, 0.510, 0.00000
0.520, 0.00000, 0.530, 0.00000, 0.540, 0.00000, 0.550, 0.00000
0.560, 0.00000, 0.570, 0.00000, 0.580, 0.00000, 0.590, 0.00000
0.600, 0.00000, 0.610, 0.00000, 0.620, 0.00000, 0.630, 0.00000
0.640, 0.00000, 0.650, 0.00000, 0.660, 0.00000, 0.670, 0.00000
0.680, 0.00000, 0.690, 0.00000, 0.700, 0.00000, 0.710, 0.00000
0.720, 0.00000, 0.730, 0.00000, 0.740, 0.00000, 0.750, 0.00000
0.760, 0.00000, 0.770, 0.00000, 0.780, 0.00000, 0.790, 0.00000
0.800, 0.00000, 0.810, 0.00000, 0.820, 0.00000, 0.830, 0.00000
0.840, 0.00000, 0.850, 0.00000, 0.860, 0.00000, 0.870, 0.00000
0.880, 0.00000, 0.890, 0.00000, 0.900, 0.00000, 0.910, 0.00000
0.920, 0.00000, 0.930, 0.00000, 0.940, 0.00000, 0.950, 0.00000
0.960, 0.00000, 0.970, 0.00000, 0.980, 0.00000, 0.990, 0.00000
1.000, 0.00000, 1.010, 0.00000, 1.020, 0.00000, 1.030, 0.00000
1.040, 0.00000, 1.050, 0.00000, 1.060, 0.00000, 1.070, 0.00000
1.080, 0.00000, 1.090, 0.00000, 1.100, 0.00000, 1.110, 0.00000
1.120, 0.00000, 1.130, 0.00000, 1.140, 0.00000, 1.150, 0.00000
1.160, 0.00000, 1.170, 0.00000, 1.180, 0.00000, 1.190, 0.00000
1.200, 0.00000, 1.210, 0.00000, 1.220, 0.00000, 1.230, 0.00000
1.240, 0.00000, 1.250, 0.00000, 1.260, 0.00000, 1.270, 0.00000
1.280, 0.00000, 1.290, 0.00000, 1.300, 0.00000, 1.310, 0.00000
1.320, 0.00000, 1.330, 0.00000, 1.340, 0.00000, 1.350, 0.00000
1.360, 0.00000, 1.370, 0.00000, 1.380, 0.00000, 1.390, 0.00000
1.400, 0.00000, 1.410, 0.00000, 1.420, 0.00000, 1.430, 0.00000
1.440, 0.00000, 1.450, 0.00000, 1.460, 0.00000, 1.470, 0.00000
1.480, 0.00000, 1.490, 0.00000, 1.500, 0.00000, 1.510, 0.00000
1.520, 0.00000, 1.530, 0.00000, 1.540, 0.00000, 1.550, 0.00000
1.560, 0.00000, 1.570, 0.00000, 1.580, 0.00000, 1.590, 0.00000
1.600, 0.00000, 1.610, 0.00000, 1.620, 0.00000, 1.630, 0.00000
1.640, 0.00000, 1.650, 0.00000, 1.660, 0.00000, 1.670, 0.00000
1.680, 0.00000, 1.690, 0.00000, 1.700, 0.00000, 1.710, 0.00000
1.720, 0.00000, 1.730, 0.00000, 1.740, 0.00000, 1.750, 0.00000
1.760, 0.00000, 1.770, 0.00000, 1.780, 0.00000, 1.790, 0.00000
1.800, 0.00000, 1.810, 0.00000, 1.820, 0.00000, 1.830, 0.00000
1.840, 0.00000, 1.850, 0.00000, 1.860, 0.00000, 1.870, 0.00000
1.880, 0.00000, 1.890, 0.00000, 1.900, 0.00000, 1.910, 0.00000
1.920, 0.00000, 1.930, 0.00000, 1.940, 0.00000, 1.950, 0.00000
1.960, 0.00000, 1.970, 0.00000, 1.980, 0.00000, 1.990, 0.00000
2.000, 0.00000, 2.010, -252.22294, 2.020, -504.44588, 2.030, -756.66882
2.040, -1008.89176, 2.050, -1261.11470, 2.060, -1198.05896, 2.070, -1135.00323
2.080, -1071.94749, 2.090, -1008.89176, 2.100, -945.83602, 2.110, -882.78029
2.120, -819.72455, 2.130, -756.66882, 2.140, -693.61308, 2.150, -630.55735
2.160, -567.50161, 2.170, -504.44588, 2.180, -441.39014, 2.190, -378.33441
2.200, -315.27867, 2.210, -252.22294, 2.220, -189.16720, 2.230, -126.11147
2.240, -63.05573, 2.250, 0.00000, 2.260, 0.00000, 2.270, 0.00000
2.280, 0.00000, 2.290, 0.00000, 2.300, 0.00000, 2.310, 0.00000
2.320, 0.00000, 2.330, 0.00000, 2.340, 0.00000, 2.350, 0.00000
2.360, 0.00000, 2.370, 0.00000, 2.380, 0.00000, 2.390, 0.00000
2.400, 0.00000, 2.410, 0.00000, 2.420, 0.00000, 2.430, 0.00000
2.440, 0.00000, 2.450, 0.00000, 2.460, 0.00000, 2.470, 0.00000
2.480, 0.00000, 2.490, 0.00000, 2.500, 0.00000, 2.510, 0.00000
2.520, 0.00000, 2.530, 0.00000, 2.540, 0.00000, 2.550, 0.00000
2.560, 0.00000, 2.570, 0.00000, 2.580, 0.00000, 2.590, 0.00000
2.600, 0.00000, 2.610, 0.00000, 2.620, 0.00000, 2.630, 0.00000
2.640, 0.00000, 2.650, 0.00000, 2.660, 0.00000, 2.670, 0.00000
2.680, 0.00000, 2.690, 0.00000, 2.700, 0.00000, 2.710, 0.00000
2.720, 0.00000, 2.730, 0.00000, 2.740, 0.00000, 2.750, 0.00000
2.760, 0.00000, 2.770, 0.00000, 2.780, 0.00000, 2.790, 0.00000
2.800, 0.00000, 2.810, 0.00000, 2.820, 0.00000, 2.830, 0.00000
2.840, 0.00000, 2.850, 0.00000, 2.860, 0.00000, 2.870, 0.00000
2.880, 0.00000, 2.890, 0.00000, 2.900, 0.00000, 2.910, 0.00000
2.920, 0.00000, 2.930, 0.00000, 2.940, 0.00000, 2.950, 0.00000
2.960, 0.00000, 2.970, 0.00000, 2.980, 0.00000, 2.990, 0.00000
3.000, 0.00000, 3.010, 0.00000, 3.020, 0.00000, 3.030, 0.00000
3.040, 0.00000, 3.050, 0.00000, 3.060, 0.00000, 3.070, 0.00000
3.080, 0.00000, 3.090, 0.00000, 3.100, 0.00000, 3.110, 0.00000
3.120, 0.00000, 3.130, 0.00000, 3.140, 0.00000, 3.150, 0.00000
3.160, 0.00000, 3.170, 0.00000, 3.180, 0.00000, 3.190, 0.00000
3.200, 0.00000, 3.210, 0.00000, 3.220, 0.00000, 3.230, 0.00000
3.240, 0.00000, 3.250, 0.00000, 3.260, 0.00000, 3.270, 0.00000
3.280, 0.00000, 3.290, 0.00000, 3.300, 0.00000, 3.310, 0.00000
3.320, 0.00000, 3.330, 0.00000, 3.340, 0.00000, 3.350, 0.00000
3.360, 0.00000, 3.370, 0.00000, 3.380, 0.00000, 3.390, 0.00000
3.400, 0.00000, 3.410, 0.00000, 3.420, 0.00000, 3.430, 0.00000
3.440, 0.00000, 3.450, 0.00000, 3.460, 0.00000, 3.470, 0.00000
3.480, 0.00000, 3.490, 0.00000, 3.500, 0.00000, 3.510, 0.00000
3.520, 0.00000, 3.530, 0.00000, 3.540, 0.00000, 3.550, 0.00000
3.560, 0.00000, 3.570, 0.00000, 3.580, 0.00000, 3.590, 0.00000
3.600, 0.00000, 3.610, 0.00000, 3.620, 0.00000, 3.630, 0.00000
3.640, 0.00000, 3.650, 0.00000, 3.660, 0.00000, 3.670, 0.00000
3.680, 0.00000, 3.690, 0.00000, 3.700, 0.00000, 3.710, 0.00000
3.720, 0.00000, 3.730, 0.00000, 3.740, 0.00000, 3.750, 0.00000
3.760, 0.00000, 3.770, 0.00000, 3.780, 0.00000, 3.790, 0.00000
3.800, 0.00000, 3.810, 0.00000, 3.820, 0.00000, 3.830, 0.00000
3.840, 0.00000, 3.850, 0.00000, 3.860, 0.00000, 3.870, 0.00000
3.880, 0.00000, 3.890, 0.00000, 3.900, 0.00000, 3.910, 0.00000
3.920, 0.00000, 3.930, 0.00000, 3.940, 0.00000, 3.950, 0.00000
3.960, 0.00000, 3.970, 0.00000, 3.980, 0.00000, 3.990, 0.00000
4.000, 0.00000, 4.010, 472.28014, 4.020, 944.56029, 4.030, 1416.84043
4.040, 1889.12057, 4.050, 2361.40072, 4.060, 2243.33068, 4.070, 2125.26065
4.080, 2007.19061, 4.090, 1889.12057, 4.100, 1771.05054, 4.110, 1652.98050
4.120, 1534.91047, 4.130, 1416.84043, 4.140, 1298.77039, 4.150, 1180.70036
4.160, 1062.63032, 4.170, 944.56029, 4.180, 826.49025, 4.190, 708.42022
4.200, 590.35018, 4.210, 472.28014, 4.220, 354.21011, 4.230, 236.14007
4.240, 118.07004, 4.250, 0.00000, 4.260, 0.00000, 4.270, 0.00000
4.280, 0.00000, 4.290, 0.00000, 4.300, 0.00000, 4.310, 0.00000
4.320, 0.00000, 4.330, 0.00000, 4.340, 0.00000, 4.350, 0.00000
4.360, 0.00000, 4.370, 0.00000, 4.380, 0.00000, 4.390, 0.00000
4.400, 0.00000, 4.410, 0.00000, 4.420, 0.00000, 4.430, 0.00000
4.440, 0.00000, 4.450, 0.00000, 4.460, 0.00000, 4.470, 0.00000
4.480, 0.00000, 4.490, 0.00000, 4.500, 0.00000, 4.510, 0.00000
4.520, 0.00000, 4.530, 0.00000, 4.540, 0.00000, 4.550, 0.00000
4.560, 0.00000, 4.570, 0.00000, 4.580, 0.00000, 4.590, 0.00000
4.600, 0.00000, 4.610, 0.00000, 4.620, 0.00000, 4.630, 0.00000
4.640, 0.00000, 4.650, 0.00000, 4.660, 0.00000, 4.670, 0.00000
4.680, 0.00000, 4.690, 0.00000, 4.700, 0.00000, 4.710, 0.00000
4.720, 0.00000, 4.730, 0.00000, 4.740, 0.00000, 4.750, 0.00000
4.760, 0.00000, 4.770, 0.00000, 4.780, 0.00000, 4.790, 0.00000
4.800, 0.00000, 4.810, 0.00000, 4.820, 0.00000, 4.830, 0.00000
4.840, 0.00000, 4.850, 0.00000, 4.860, 0.00000, 4.870, 0.00000
4.880, 0.00000, 4.890, 0.00000, 4.900, 0.00000, 4.910, 0.00000
4.920, 0.00000, 4.930, 0.00000, 4.940, 0.00000, 4.950, 0.00000
4.960, 0.00000, 4.970, 0.00000, 4.980, 0.00000, 4.990, 0.00000
5.000, 0.00000, 5.010, 0.00000, 5.020, 0.00000, 5.030, 0.00000
5.040, 0.00000, 5.050, 0.00000, 5.060, 0.00000, 5.070, 0.00000
5.080, 0.00000, 5.090, 0.00000, 5.100, 0.00000, 5.110, 0.00000
5.120, 0.00000, 5.130, 0.00000, 5.140, 0.00000, 5.150, 0.00000
5.160, 0.00000, 5.170, 0.00000, 5.180, 0.00000, 5.190, 0.00000
5.200, 0.00000, 5.210, 0.00000, 5.220, 0.00000, 5.230, 0.00000
5.240, 0.00000, 5.250, 0.00000, 5.260, 0.00000, 5.270, 0.00000
5.280, 0.00000, 5.290, 0.00000, 5.300, 0.00000, 5.310, 0.00000
5.320, 0.00000, 5.330, 0.00000, 5.340, 0.00000, 5.350, 0.00000
5.360, 0.00000, 5.370, 0.00000, 5.380, 0.00000, 5.390, 0.00000
5.400, 0.00000, 5.410, 0.00000, 5.420, 0.00000, 5.430, 0.00000
5.440, 0.00000, 5.450, 0.00000, 5.460, 0.00000, 5.470, 0.00000
5.480, 0.00000, 5.490, 0.00000, 5.500, 0.00000, 5.510, 0.00000
5.520, 0.00000, 5.530, 0.00000, 5.540, 0.00000, 5.550, 0.00000
5.560, 0.00000, 5.570, 0.00000, 5.580, 0.00000, 5.590, 0.00000
5.600, 0.00000, 5.610, 0.00000, 5.620, 0.00000, 5.630, 0.00000
5.640, 0.00000, 5.650, 0.00000, 5.660, 0.00000, 5.670, 0.00000
5.680, 0.00000, 5.690, 0.00000, 5.700, 0.00000, 5.710, 0.00000
5.720, 0.00000, 5.730, 0.00000, 5.740, 0.00000, 5.750, 0.00000
5.760, 0.00000, 5.770, 0.00000, 5.780, 0.00000, 5.790, 0.00000
5.800, 0.00000, 5.810, 0.00000, 5.820, 0.00000, 5.830, 0.00000
5.840, 0.00000, 5.850, 0.00000, 5.860, 0.00000, 5.870, 0.00000
5.880, 0.00000, 5.890, 0.00000, 5.900, 0.00000, 5.910, 0.00000
5.920, 0.00000, 5.930, 0.00000, 5.940, 0.00000, 5.950, 0.00000
5.960, 0.00000, 5.970, 0.00000, 5.980, 0.00000, 5.990, 0.00000
6.000, 0.00000, 6.010, 1036.08032, 6.020, 2072.16064, 6.030, 3108.24096
6.040, 4144.32128, 6.050, 5180.40160, 6.060, 4921.38152, 6.070, 4662.36144
6.080, 4403.34136, 6.090, 4144.32128, 6.100, 3885.30120, 6.110, 3626.28112
6.120, 3367.26104, 6.130, 3108.24096, 6.140, 2849.22088, 6.150, 2590.20080
6.160, 2331.18072, 6.170, 2072.16064, 6.180, 1813.14056, 6.190, 1554.12048
6.200, 1295.10040, 6.210, 1036.08032, 6.220, 777.06024, 6.230, 518.04016
6.240, 259.02008, 6.250, 0.00000, 6.260, 0.00000, 6.270, 0.00000
6.280, 0.00000, 6.290, 0.00000, 6.300, 0.00000, 6.310, 0.00000
6.320, 0.00000, 6.330, 0.00000, 6.340, 0.00000, 6.350, 0.00000
6.360, 0.00000, 6.370, 0.00000, 6.380, 0.00000, 6.390, 0.00000
6.400, 0.00000, 6.410, 0.00000, 6.420, 0.00000, 6.430, 0.00000
6.440, 0.00000, 6.450, 0.00000, 6.460, 0.00000, 6.470, 0.00000
6.480, 0.00000, 6.490, 0.00000, 6.500, 0.00000, 6.510, 0.00000
6.520, 0.00000, 6.530, 0.00000, 6.540, 0.00000, 6.550, 0.00000
6.560, 0.00000, 6.570, 0.00000, 6.580, 0.00000, 6.590, 0.00000
6.600, 0.00000, 6.610, 0.00000, 6.620, 0.00000, 6.630, 0.00000
6.640, 0.00000, 6.650, 0.00000, 6.660, 0.00000, 6.670, 0.00000
6.680, 0.00000, 6.690, 0.00000, 6.700, 0.00000, 6.710, 0.00000
6.720, 0.00000, 6.730, 0.00000, 6.740, 0.00000, 6.750, 0.00000
6.760, 0.00000, 6.770, 0.00000, 6.780, 0.00000, 6.790, 0.00000
6.800, 0.00000, 6.810, 0.00000, 6.820, 0.00000, 6.830, 0.00000
6.840, 0.00000, 6.850, 0.00000, 6.860, 0.00000, 6.870, 0.00000
6.880, 0.00000, 6.890, 0.00000, 6.900, 0.00000, 6.910, 0.00000
6.920, 0.00000, 6.930, 0.00000, 6.940, 0.00000, 6.950, 0.00000
6.960, 0.00000, 6.970, 0.00000, 6.980, 0.00000, 6.990, 0.00000
7.000, 0.00000, 7.010, 0.00000, 7.020, 0.00000, 7.030, 0.00000
7.040, 0.00000, 7.050, 0.00000, 7.060, 0.00000, 7.070, 0.00000
7.080, 0.00000, 7.090, 0.00000, 7.100, 0.00000, 7.110, 0.00000
7.120, 0.00000, 7.130, 0.00000, 7.140, 0.00000, 7.150, 0.00000
7.160, 0.00000, 7.170, 0.00000, 7.180, 0.00000, 7.190, 0.00000
7.200, 0.00000, 7.210, 0.00000, 7.220, 0.00000, 7.230, 0.00000
7.240, 0.00000, 7.250, 0.00000, 7.260, 0.00000, 7.270, 0.00000
7.280, 0.00000, 7.290, 0.00000, 7.300, 0.00000, 7.310, 0.00000
7.320, 0.00000, 7.330, 0.00000, 7.340, 0.00000, 7.350, 0.00000
7.360, 0.00000, 7.370, 0.00000, 7.380, 0.00000, 7.390, 0.00000
7.400, 0.00000, 7.410, 0.00000, 7.420, 0.00000, 7.430, 0.00000
7.440, 0.00000, 7.450, 0.00000, 7.460, 0.00000, 7.470, 0.00000
7.480, 0.00000, 7.490, 0.00000, 7.500, 0.00000, 7.510, 0.00000
7.520, 0.00000, 7.530, 0.00000, 7.540, 0.00000, 7.550, 0.00000
7.560, 0.00000, 7.570, 0.00000, 7.580, 0.00000, 7.590, 0.00000
7.600, 0.00000, 7.610, 0.00000, 7.620, 0.00000, 7.630, 0.00000
7.640, 0.00000, 7.650, 0.00000, 7.660, 0.00000, 7.670, 0.00000
7.680, 0.00000, 7.690, 0.00000, 7.700, 0.00000, 7.710, 0.00000
7.720, 0.00000, 7.730, 0.00000, 7.740, 0.00000, 7.750, 0.00000
7.760, 0.00000, 7.770, 0.00000, 7.780, 0.00000, 7.790, 0.00000
7.800, 0.00000, 7.810, 0.00000, 7.820, 0.00000, 7.830, 0.00000
7.840, 0.00000, 7.850, 0.00000, 7.860, 0.00000, 7.870, 0.00000
7.880, 0.00000, 7.890, 0.00000, 7.900, 0.00000, 7.910, 0.00000
7.920, 0.00000, 7.930, 0.00000, 7.940, 0.00000, 7.950, 0.00000
7.960, 0.00000, 7.970, 0.00000, 7.980, 0.00000, 7.990, 0.00000
8.000, 0.00000, 8.010, 1507.65912, 8.020, 3015.31825, 8.030, 4522.97737
8.040, 6030.63650, 8.050, 7538.29562, 8.060, 7161.38084, 8.070, 6784.46606
8.080, 6407.55128, 8.090, 6030.63650, 8.100, 5653.72171, 8.110, 5276.80693
8.120, 4899.89215, 8.130, 4522.97737, 8.140, 4146.06259, 8.150, 3769.14781
8.160, 3392.23303, 8.170, 3015.31825, 8.180, 2638.40347, 8.190, 2261.48869
8.200, 1884.57390, 8.210, 1507.65912, 8.220, 1130.74434, 8.230, 753.82956
8.240, 376.91478, 8.250, 0.00000, 8.260, 0.00000, 8.270, 0.00000
8.280, 0.00000, 8.290, 0.00000, 8.300, 0.00000, 8.310, 0.00000
8.320, 0.00000, 8.330, 0.00000, 8.340, 0.00000, 8.350, 0.00000
8.360, 0.00000, 8.370, 0.00000, 8.380, 0.00000, 8.390, 0.00000
8.400, 0.00000, 8.410, 0.00000, 8.420, 0.00000, 8.430, 0.00000
8.440, 0.00000, 8.450, 0.00000, 8.460, 0.00000, 8.470, 0.00000
8.480, 0.00000, 8.490, 0.00000, 8.500, 0.00000, 8.510, 0.00000
8.520, 0.00000, 8.530, 0.00000, 8.540, 0.00000, 8.550, 0.00000
8.560, 0.00000, 8.570, 0.00000, 8.580, 0.00000, 8.590, 0.00000
8.600, 0.00000, 8.610, 0.00000, 8.620, 0.00000, 8.630, 0.00000
8.640, 0.00000, 8.650, 0.00000, 8.660, 0.00000, 8.670, 0.00000
8.680, 0.00000, 8.690, 0.00000, 8.700, 0.00000, 8.710, 0.00000
8.720, 0.00000, 8.730, 0.00000, 8.740, 0.00000, 8.750, 0.00000
8.760, 0.00000, 8.770, 0.00000, 8.780, 0.00000, 8.790, 0.00000
8.800, 0.00000, 8.810, 0.00000, 8.820, 0.00000, 8.830, 0.00000
8.840, 0.00000, 8.850, 0.00000, 8.860, 0.00000, 8.870, 0.00000
8.880, 0.00000, 8.890, 0.00000, 8.900, 0.00000, 8.910, 0.00000
8.920, 0.00000, 8.930, 0.00000, 8.940, 0.00000, 8.950, 0.00000
8.960, 0.00000, 8.970, 0.00000, 8.980, 0.00000, 8.990, 0.00000
9.000, 0.00000, 9.010, 0.00000, 9.020, 0.00000, 9.030, 0.00000
9.040, 0.00000, 9.050, 0.00000, 9.060, 0.00000, 9.070, 0.00000
9.080, 0.00000, 9.090, 0.00000, 9.100, 0.00000, 9.110, 0.00000
9.120, 0.00000, 9.130, 0.00000, 9.140, 0.00000, 9.150, 0.00000
9.160, 0.00000, 9.170, 0.00000, 9.180, 0.00000, 9.190, 0.00000
9.200, 0.00000, 9.210, 0.00000, 9.220, 0.00000, 9.230, 0.00000
9.240, 0.00000, 9.250, 0.00000, 9.260, 0.00000, 9.270, 0.00000
9.280, 0.00000, 9.290, 0.00000, 9.300, 0.00000, 9.310, 0.00000
9.320, 0.00000, 9.330, 0.00000, 9.340, 0.00000, 9.350, 0.00000
9.360, 0.00000, 9.370, 0.00000, 9.380, 0.00000, 9.390, 0.00000
9.400, 0.00000, 9.410, 0.00000, 9.420, 0.00000, 9.430, 0.00000
9.440, 0.00000, 9.450, 0.00000, 9.460, 0.00000, 9.470, 0.00000
9.480, 0.00000, 9.490, 0.00000, 9.500, 0.00000, 9.510, 0.00000
9.520, 0.00000, 9.530, 0.00000, 9.540, 0.00000, 9.550, 0.00000
9.560, 0.00000, 9.570, 0.00000, 9.580, 0.00000, 9.590, 0.00000
9.600, 0.00000, 9.610, 0.00000, 9.620, 0.00000, 9.630, 0.00000
9.640, 0.00000, 9.650, 0.00000, 9.660, 0.00000, 9.670, 0.00000
9.680, 0.00000, 9.690, 0.00000, 9.700, 0.00000, 9.710, 0.00000
9.720, 0.00000, 9.730, 0.00000, 9.740, 0.00000, 9.750, 0.00000
9.760, 0.00000, 9.770, 0.00000, 9.780, 0.00000, 9.790, 0.00000
9.800, 0.00000, 9.810, 0.00000, 9.820, 0.00000, 9.830, 0.00000
9.840, 0.00000, 9.850, 0.00000, 9.860, 0.00000, 9.870, 0.00000
9.880, 0.00000, 9.890, 0.00000, 9.900, 0.00000, 9.910, 0.00000
9.920, 0.00000, 9.930, 0.00000, 9.940, 0.00000, 9.950, 0.00000
9.960, 0.00000, 9.970, 0.00000, 9.980, 0.00000, 9.990, 0.00000
*AMPLITUDE, NAME=ROW10
0.000, 0.00000, 0.010, -5248.68787, 0.020, -10497.37575, 0.030, -15746.06362
0.040, -20994.75150, 0.050, -26243.43937, 0.060, -24931.26740, 0.070, -23619.09544
0.080, -22306.92347, 0.090, -20994.75150, 0.100, -19682.57953, 0.110, -18370.40756
0.120, -17058.23559, 0.130, -15746.06362, 0.140, -14433.89165, 0.150, -13121.71969
0.160, -11809.54772, 0.170, -10497.37575, 0.180, -9185.20378, 0.190, -7873.03181
0.200, -6560.85984, 0.210, -5248.68787, 0.220, -3936.51591, 0.230, -2624.34394
0.240, -1312.17197, 0.250, 0.00000, 0.260, 0.00000, 0.270, 0.00000
0.280, 0.00000, 0.290, 0.00000, 0.300, 0.00000, 0.310, 0.00000
0.320, 0.00000, 0.330, 0.00000, 0.340, 0.00000, 0.350, 0.00000
0.360, 0.00000, 0.370, 0.00000, 0.380, 0.00000, 0.390, 0.00000
0.400, 0.00000, 0.410, 0.00000, 0.420, 0.00000, 0.430, 0.00000
0.440, 0.00000, 0.450, 0.00000, 0.460, 0.00000, 0.470, 0.00000
0.480, 0.00000, 0.490, 0.00000, 0.500, 0.00000, 0.510, 0.00000
0.520, 0.00000, 0.530, 0.00000, 0.540, 0.00000, 0.550, 0.00000
0.560, 0.00000, 0.570, 0.00000, 0.580, 0.00000, 0.590, 0.00000
0.600, 0.00000, 0.610, 0.00000, 0.620, 0.00000, 0.630, 0.00000
0.640, 0.00000, 0.650, 0.00000, 0.660, 0.00000, 0.670, 0.00000
0.680, 0.00000, 0.690, 0.00000, 0.700, 0.00000, 0.710, 0.00000
0.720, 0.00000, 0.730, 0.00000, 0.740, 0.00000, 0.750, 0.00000
0.760, 0.00000, 0.770, 0.00000, 0.780, 0.00000, 0.790, 0.00000
0.800, 0.00000, 0.810, 0.00000, 0.820, 0.00000, 0.830, 0.00000
0.840, 0.00000, 0.850, 0.00000, 0.860, 0.00000, 0.870, 0.00000
0.880, 0.00000, 0.890, 0.00000, 0.900, 0.00000, 0.910, 0.00000
0.920, 0.00000, 0.930, 0.00000, 0.940, 0.00000, 0.950, 0.00000
0.960, 0.00000, 0.970, 0.00000, 0.980, 0.00000, 0.990, 0.00000
1.000, 0.00000, 1.010, 0.00000, 1.020, 0.00000, 1.030, 0.00000
1.040, 0.00000, 1.050, 0.00000, 1.060, 0.00000, 1.070, 0.00000
1.080, 0.00000, 1.090, 0.00000, 1.100, 0.00000, 1.110, 0.00000
1.120, 0.00000, 1.130, 0.00000, 1.140, 0.00000, 1.150, 0.00000
1.160, 0.00000, 1.170, 0.00000, 1.180, 0.00000, 1.190, 0.00000
1.200, 0.00000, 1.210, 0.00000, 1.220, 0.00000, 1.230, 0.00000
1.240, 0.00000, 1.250, 0.00000, 1.260, 0.00000, 1.270, 0.00000
1.280, 0.00000, 1.290, 0.00000, 1.300, 0.00000, 1.310, 0.00000
1.320, 0.00000, 1.330, 0.00000, 1.340, 0.00000, 1.350, 0.00000
1.360, 0.00000, 1.370, 0.00000, 1.380, 0.00000, 1.390, 0.00000
1.400, 0.00000, 1.410, 0.00000, 1.420, 0.00000, 1.430, 0.00000
1.440, 0.00000, 1.450, 0.00000, 1.460, 0.00000, 1.470, 0.00000
1.480, 0.00000, 1.490, 0.00000, 1.500, 0.00000, 1.510, 0.00000
1.520, 0.00000, 1.530, 0.00000, 1.540, 0.00000, 1.550, 0.00000
1.560, 0.00000, 1.570, 0.00000, 1.580, 0.00000, 1.590, 0.00000
1.600, 0.00000, 1.610, 0.00000, 1.620, 0.00000, 1.630, 0.00000
1.640, 0.00000, 1.650, 0.00000, 1.660, 0.00000, 1.670, 0.00000
1.680, 0.00000, 1.690, 0.00000, 1.700, 0.00000, 1.710, 0.00000
1.720, 0.00000, 1.730, 0.00000, 1.740, 0.00000, 1.750, 0.00000
1.760, 0.00000, 1.770, 0.00000, 1.780, 0.00000, 1.790, 0.00000
1.800, 0.00000, 1.810, 0.00000, 1.820, 0.00000, 1.830, 0.00000
1.840, 0.00000, 1.850, 0.00000, 1.860, 0.00000, 1.870, 0.00000
1.880, 0.00000, 1.890, 0.00000, 1.900, 0.00000, 1.910, 0.00000
1.920, 0.00000, 1.930, 0.00000, 1.940, 0.00000, 1.950, 0.00000
1.960, 0.00000, 1.970, 0.00000, 1.980, 0.00000, 1.990, 0.00000
2.000, 0.00000, 2.010, -4836.78360, 2.020, -9673.56720, 2.030, -14510.35080
2.040, -19347.13440, 2.050, -24183.91801, 2.060, -22974.72211, 2.070, -21765.52620
2.080, -20556.33030, 2.090, -19347.13440, 2.100, -18137.93850, 2.110, -16928.74260
2.120, -15719.54670, 2.130, -14510.35080, 2.140, -13301.15490, 2.150, -12091.95900
2.160, -10882.76310, 2.170, -9673.56720, 2.180, -8464.37130, 2.190, -7255.17540
2.200, -6045.97950, 2.210, -4836.78360, 2.220, -3627.58770, 2.230, -2418.39180
2.240, -1209.19590, 2.250, 0.00000, 2.260, 0.00000, 2.270, 0.00000
2.280, 0.00000, 2.290, 0.00000, 2.300, 0.00000, 2.310, 0.00000
2.320, 0.00000, 2.330, 0.00000, 2.340, 0.00000, 2.350, 0.00000
2.360, 0.00000, 2.370, 0.00000, 2.380, 0.00000, 2.390, 0.00000
2.400, 0.00000, 2.410, 0.00000, 2.420, 0.00000, 2.430, 0.00000
2.440, 0.00000, 2.450, 0.00000, 2.460, 0.00000, 2.470, 0.00000
2.480, 0.00000, 2.490, 0.00000, 2.500, 0.00000, 2.510, 0.00000
2.520, 0.00000, 2.530, 0.00000, 2.540, 0.00000, 2.550, 0.00000
2.560, 0.00000, 2.570, 0.00000, 2.580, 0.00000, 2.590, 0.00000
2.600, 0.00000, 2.610, 0.00000, 2.620, 0.00000, 2.630, 0.00000
2.640, 0.00000, 2.650, 0.00000, 2.660, 0.00000, 2.670, 0.00000
2.680, 0.00000, 2.690, 0.00000, 2.700, 0.00000, 2.710, 0.00000
2.720, 0.00000, 2.730, 0.00000, 2.740, 0.00000, 2.750, 0.00000
2.760, 0.00000, 2.770, 0.00000, 2.780, 0.00000, 2.790, 0.00000
2.800, 0.00000, 2.810, 0.00000, 2.820, 0.00000, 2.830, 0.00000
2.840, 0.00000, 2.850, 0.00000, 2.860, 0.00000, 2.870, 0.00000
2.880, 0.00000, 2.890, 0.00000, 2.900, 0.00000, 2.910, 0.00000
2.920, 0.00000, 2.930, 0.00000, 2.940, 0.00000, 2.950, 0.00000
2.960, 0.00000, 2.970, 0.00000, 2.980, 0.00000, 2.990, 0.00000
3.000, 0.00000, 3.010, 0.00000, 3.020, 0.00000, 3.030, 0.00000
3.040, 0.00000, 3.050, 0.00000, 3.060, 0.00000, 3.070, 0.00000
3.080, 0.00000, 3.090, 0.00000, 3.100, 0.00000, 3.110, 0.00000
3.120, 0.00000, 3.130, 0.00000, 3.140, 0.00000, 3.150, 0.00000
3.160, 0.00000, 3.170, 0.00000, 3.180, 0.00000, 3.190, 0.00000
3.200, 0.00000, 3.210, 0.00000, 3.220, 0.00000, 3.230, 0.00000
3.240, 0.00000, 3.250, 0.00000, 3.260, 0.00000, 3.270, 0.00000
3.280, 0.00000, 3.290, 0.00000, 3.300, 0.00000, 3.310, 0.00000
3.320, 0.00000, 3.330, 0.00000, 3.340, 0.00000, 3.350, 0.00000
3.360, 0.00000, 3.370, 0.00000, 3.380, 0.00000, 3.390, 0.00000
3.400, 0.00000, 3.410, 0.00000, 3.420, 0.00000, 3.430, 0.00000
3.440, 0.00000, 3.450, 0.00000, 3.460, 0.00000, 3.470, 0.00000
3.480, 0.00000, 3.490, 0.00000, 3.500, 0.00000, 3.510, 0.00000
3.520, 0.00000, 3.530, 0.00000, 3.540, 0.00000, 3.550, 0.00000
3.560, 0.00000, 3.570, 0.00000, 3.580, 0.00000, 3.590, 0.00000
3.600, 0.00000, 3.610, 0.00000, 3.620, 0.00000, 3.630, 0.00000
3.640, 0.00000, 3.650, 0.00000, 3.660, 0.00000, 3.670, 0.00000
3.680, 0.00000, 3.690, 0.00000, 3.700, 0.00000, 3.710, 0.00000
3.720, 0.00000, 3.730, 0.00000, 3.740, 0.00000, 3.750, 0.00000
3.760, 0.00000, 3.770, 0.00000, 3.780, 0.00000, 3.790, 0.00000
3.800, 0.00000, 3.810, 0.00000, 3.820, 0.00000, 3.830, 0.00000
3.840, 0.00000, 3.850, 0.00000, 3.860, 0.00000, 3.870, 0.00000
3.880, 0.00000, 3.890, 0.00000, 3.900, 0.00000, 3.910, 0.00000
3.920, 0.00000, 3.930, 0.00000, 3.940, 0.00000, 3.950, 0.00000
3.960, 0.00000, 3.970, 0.00000, 3.980, 0.00000, 3.990, 0.00000
4.000, 0.00000, 4.010, -4418.79943, 4.020, -8837.59885, 4.030, -13256.39828
4.040, -17675.19771, 4.050, -22093.99714, 4.060, -20989.29728, 4.070, -19884.59742
4.080, -18779.89756, 4.090, -17675.19771, 4.100, -16570.49785, 4.110, -15465.79799
4.120, -14361.09814, 4.130, -13256.39828, 4.140, -12151.69842, 4.150, -11046.99857
4.160, -9942.29871, 4.170, -8837.59885, 4.180, -7732.89900, 4.190, -6628.19914
4.200, -5523.49928, 4.210, -4418.79943, 4.220, -3314.09957, 4.230, -2209.39971
4.240, -1104.69986, 4.250, 0.00000, 4.260, 0.00000, 4.270, 0.00000
4.280, 0.00000, 4.290, 0.00000, 4.300, 0.00000, 4.310, 0.00000
4.320, 0.00000, 4.330, 0.00000, 4.340, 0.00000, 4.350, 0.00000
4.360, 0.00000, 4.370, 0.00000, 4.380, 0.00000, 4.390, 0.00000
4.400, 0.00000, 4.410, 0.00000, 4.420, 0.00000, 4.430, 0.00000
4.440, 0.00000, 4.450, 0.00000, 4.460, 0.00000, 4.470, 0.00000
4.480, 0.00000, 4.490, 0.00000, 4.500, 0.00000, 4.510, 0.00000
4.520, 0.00000, 4.530, 0.00000, 4.540, 0.00000, 4.550, 0.00000
4.560, 0.00000, 4.570, 0.00000, 4.580, 0.00000, 4.590, 0.00000
4.600, 0.00000, 4.610, 0.00000, 4.620, 0.00000, 4.630, 0.00000
4.640, 0.00000, 4.650, 0.00000, 4.660, 0.00000, 4.670, 0.00000
4.680, 0.00000, 4.690, 0.00000, 4.700, 0.00000, 4.710, 0.00000
4.720, 0.00000, 4.730, 0.00000, 4.740, 0.00000, 4.750, 0.00000
4.760, 0.00000, 4.770, 0.00000, 4.780, 0.00000, 4.790, 0.00000
4.800, 0.00000, 4.810, 0.00000, 4.820, 0.00000, 4.830, 0.00000
4.840, 0.00000, 4.850, 0.00000, 4.860, 0.00000, 4.870, 0.00000
4.880, 0.00000, 4.890, 0.00000, 4.900, 0.00000, 4.910, 0.00000
4.920, 0.00000, 4.930, 0.00000, 4.940, 0.00000, 4.950, 0.00000
4.960, 0.00000, 4.970, 0.00000, 4.980, 0.00000, 4.990, 0.00000
5.000, 0.00000, 5.010, 0.00000, 5.020, 0.00000, 5.030, 0.00000
5.040, 0.00000, 5.050, 0.00000, 5.060, 0.00000, 5.070, 0.00000
5.080, 0.00000, 5.090, 0.00000, 5.100, 0.00000, 5.110, 0.00000
5.120, 0.00000, 5.130, 0.00000, 5.140, 0.00000, 5.150, 0.00000
5.160, 0.00000, 5.170, 0.00000, 5.180, 0.00000, 5.190, 0.00000
5.200, 0.00000, 5.210, 0.00000, 5.220, 0.00000, 5.230, 0.00000
5.240, 0.00000, 5.250, 0.00000, 5.260, 0.00000, 5.270, 0.00000
5.280, 0.00000, 5.290, 0.00000, 5.300, 0.00000, 5.310, 0.00000
5.320, 0.00000, 5.330, 0.00000, 5.340, 0.00000, 5.350, 0.00000
5.360, 0.00000, 5.370, 0.00000, 5.380, 0.00000, 5.390, 0.00000
5.400, 0.00000, 5.410, 0.00000, 5.420, 0.00000, 5.430, 0.00000
5.440, 0.00000, 5.450, 0.00000, 5.460, 0.00000, 5.470, 0.00000
5.480, 0.00000, 5.490, 0.00000, 5.500, 0.00000, 5.510, 0.00000
5.520, 0.00000, 5.530, 0.00000, 5.540, 0.00000, 5.550, 0.00000
5.560, 0.00000, 5.570, 0.00000, 5.580, 0.00000, 5.590, 0.00000
5.600, 0.00000, 5.610, 0.00000, 5.620, 0.00000, 5.630, 0.00000
5.640, 0.00000, 5.650, 0.00000, 5.660, 0.00000, 5.670, 0.00000
5.680, 0.00000, 5.690, 0.00000, 5.700, 0.00000, 5.710, 0.00000
5.720, 0.00000, 5.730, 0.00000, 5.740, 0.00000, 5.750, 0.00000
5.760, 0.00000, 5.770, 0.00000, 5.780, 0.00000, 5.790, 0.00000
5.800, 0.00000, 5.810, 0.00000, 5.820, 0.00000, 5.830, 0.00000
5.840, 0.00000, 5.850, 0.00000, 5.860, 0.00000, 5.870, 0.00000
5.880, 0.00000, 5.890, 0.00000, 5.900, 0.00000, 5.910, 0.00000
5.920, 0.00000, 5.930, 0.00000, 5.940, 0.00000, 5.950, 0.00000
5.960, 0.00000, 5.970, 0.00000, 5.980, 0.00000, 5.990, 0.00000
6.000, 0.00000, 6.010, -4030.85050, 6.020, -8061.70100, 6.030, -12092.55151
6.040, -16123.40201, 6.050, -20154.25251, 6.060, -19146.53989, 6.070, -18138.82726
6.080, -17131.11463, 6.090, -16123.40201, 6.100, -15115.68938, 6.110, -14107.97676
6.120, -13100.26413, 6.130, -12092.55151, 6.140, -11084.83888, 6.150, -10077.12626
6.160, -9069.41363, 6.170, -8061.70100, 6.180, -7053.98838, 6.190, -6046.27575
6.200, -5038.56313, 6.210, -4030.85050, 6.220, -3023.13788, 6.230, -2015.42525
6.240, -1007.71263, 6.250, 0.00000, 6.260, 0.00000, 6.270, 0.00000
6.280, 0.00000, 6.290, 0.00000, 6.300, 0.00000, 6.310, 0.00000
6.320, 0.00000, 6.330, 0.00000, 6.340, 0.00000, 6.350, 0.00000
6.360, 0.00000, 6.370, 0.00000, 6.380, 0.00000, 6.390, 0.00000
6.400, 0.00000, 6.410, 0.00000, 6.420, 0.00000, 6.430, 0.00000
6.440, 0.00000, 6.450, 0.00000, 6.460, 0.00000, 6.470, 0.00000
6.480, 0.00000, 6.490, 0.00000, 6.500, 0.00000, 6.510, 0.00000
6.520, 0.00000, 6.530, 0.00000, 6.540, 0.00000, 6.550, 0.00000
6.560, 0.00000, 6.570, 0.00000, 6.580, 0.00000, 6.590, 0.00000
6.600, 0.00000, 6.610, 0.00000, 6.620, 0.00000, 6.630, 0.00000
6.640, 0.00000, 6.650, 0.00000, 6.660, 0.00000, 6.670, 0.00000
6.680, 0.00000, 6.690, 0.00000, 6.700, 0.00000, 6.710, 0.00000
6.720, 0.00000, 6.730, 0.00000, 6.740, 0.00000, 6.750, 0.00000
6.760, 0.00000, 6.770, 0.00000, 6.780, 0.00000, 6.790, 0.00000
6.800, 0.00000, 6.810, 0.00000, 6.820, 0.00000, 6.830, 0.00000
6.840, 0.00000, 6.850, 0.00000, 6.860, 0.00000, 6.870, 0.00000
6.880, 0.00000, 6.890, 0.00000, 6.900, 0.00000, 6.910, 0.00000
6.920, 0.00000, 6.930, 0.00000, 6.940, 0.00000, 6.950, 0.00000
6.960, 0.00000, 6.970, 0.00000, 6.980, 0.00000, 6.990, 0.00000
7.000, 0.00000, 7.010, 0.00000, 7.020, 0.00000, 7.030, 0.00000
7.040, 0.00000, 7.050, 0.00000, 7.060, 0.00000, 7.070, 0.00000
7.080, 0.00000, 7.090, 0.00000, 7.100, 0.00000, 7.110, 0.00000
7.120, 0.00000, 7.130, 0.00000, 7.140, 0.00000, 7.150, 0.00000
7.160, 0.00000, 7.170, 0.00000, 7.180, 0.00000, 7.190, 0.00000
7.200, 0.00000, 7.210, 0.00000, 7.220, 0.00000, 7.230, 0.00000
7.240, 0.00000, 7.250, 0.00000, 7.260, 0.00000, 7.270, 0.00000
7.280, 0.00000, 7.290, 0.00000, 7.300, 0.00000, 7.310, 0.00000
7.320, 0.00000, 7.330, 0.00000, 7.340, 0.00000, 7.350, 0.00000
7.360, 0.00000, 7.370, 0.00000, 7.380, 0.00000, 7.390, 0.00000
7.400, 0.00000, 7.410, 0.00000, 7.420, 0.00000, 7.430, 0.00000
7.440, 0.00000, 7.450, 0.00000, 7.460, 0.00000, 7.470, 0.00000
7.480, 0.00000, 7.490, 0.00000, 7.500, 0.00000, 7.510, 0.00000
7.520, 0.00000, 7.530, 0.00000, 7.540, 0.00000, 7.550, 0.00000
7.560, 0.00000, 7.570, 0.00000, 7.580, 0.00000, 7.590, 0.00000
7.600, 0.00000, 7.610, 0.00000, 7.620, 0.00000, 7.630, 0.00000
7.640, 0.00000, 7.650, 0.00000, 7.660, 0.00000, 7.670, 0.00000
7.680, 0.00000, 7.690, 0.00000, 7.700, 0.00000, 7.710, 0.00000
7.720, 0.00000, 7.730, 0.00000, 7.740, 0.00000, 7.750, 0.00000
7.760, 0.00000, 7.770, 0.00000, 7.780, 0.00000, 7.790, 0.00000
7.800, 0.00000, 7.810, 0.00000, 7.820, 0.00000, 7.830, 0.00000
7.840, 0.00000, 7.850, 0.00000, 7.860, 0.00000, 7.870, 0.00000
7.880, 0.00000, 7.890, 0.00000, 7.900, 0.00000, 7.910, 0.00000
7.920, 0.00000, 7.930, 0.00000, 7.940, 0.00000, 7.950, 0.00000
7.960, 0.00000, 7.970, 0.00000, 7.980, 0.00000, 7.990, 0.00000
8.000, 0.00000, 8.010, -3672.47038, 8.020, -7344.94076, 8.030, -11017.41113
8.040, -14689.88151, 8.050, -18362.35189, 8.060, -17444.23430, 8.070, -16526.11670
8.080, -15607.99911, 8.090, -14689.88151, 8.100, -13771.76392, 8.110, -12853.64632
8.120, -11935.52873, 8.130, -11017.41113, 8.140, -10099.29354, 8.150, -9181.17595
8.160, -8263.05835, 8.170, -7344.94076, 8.180, -6426.82316, 8.190, -5508.70557
8.200, -4590.58797, 8.210, -3672.47038, 8.220, -2754.35278, 8.230, -1836.23519
8.240, -918.11759, 8.250, 0.00000, 8.260, 0.00000, 8.270, 0.00000
8.280, 0.00000, 8.290, 0.00000, 8.300, 0.00000, 8.310, 0.00000
8.320, 0.00000, 8.330, 0.00000, 8.340, 0.00000, 8.350, 0.00000
8.360, 0.00000, 8.370, 0.00000, 8.380, 0.00000, 8.390, 0.00000
8.400, 0.00000, 8.410, 0.00000, 8.420, 0.00000, 8.430, 0.00000
8.440, 0.00000, 8.450, 0.00000, 8.460, 0.00000, 8.470, 0.00000
8.480, 0.00000, 8.490, 0.00000, 8.500, 0.00000, 8.510, 0.00000
8.520, 0.00000, 8.530, 0.00000, 8.540, 0.00000, 8.550, 0.00000
8.560, 0.00000, 8.570, 0.00000, 8.580, 0.00000, 8.590, 0.00000
8.600, 0.00000, 8.610, 0.00000, 8.620, 0.00000, 8.630, 0.00000
8.640, 0.00000, 8.650, 0.00000, 8.660, 0.00000, 8.670, 0.00000
8.680, 0.00000, 8.690, 0.00000, 8.700, 0.00000, 8.710, 0.00000
8.720, 0.00000, 8.730, 0.00000, 8.740, 0.00000, 8.750, 0.00000
8.760, 0.00000, 8.770, 0.00000, 8.780, 0.00000, 8.790, 0.00000
8.800, 0.00000, 8.810, 0.00000, 8.820, 0.00000, 8.830, 0.00000
8.840, 0.00000, 8.850, 0.00000, 8.860, 0.00000, 8.870, 0.00000
8.880, 0.00000, 8.890, 0.00000, 8.900, 0.00000, 8.910, 0.00000
8.920, 0.00000, 8.930, 0.00000, 8.940, 0.00000, 8.950, 0.00000
8.960, 0.00000, 8.970, 0.00000, 8.980, 0.00000, 8.990, 0.00000
9.000, 0.00000, 9.010, 0.00000, 9.020, 0.00000, 9.030, 0.00000
9.040, 0.00000, 9.050, 0.00000, 9.060, 0.00000, 9.070, 0.00000
9.080, 0.00000, 9.090, 0.00000, 9.100, 0.00000, 9.110, 0.00000
9.120, 0.00000, 9.130, 0.00000, 9.140, 0.00000, 9.150, 0.00000
9.160, 0.00000, 9.170, 0.00000, 9.180, 0.00000, 9.190, 0.00000
9.200, 0.00000, 9.210, 0.00000, 9.220, 0.00000, 9.230, 0.00000
9.240, 0.00000, 9.250, 0.00000, 9.260, 0.00000, 9.270, 0.00000
9.280, 0.00000, 9.290, 0.00000, 9.300, 0.00000, 9.310, 0.00000
9.320, 0.00000, 9.330, 0.00000, 9.340, 0.00000, 9.350, 0.00000
9.360, 0.00000, 9.370, 0.00000, 9.380, 0.00000, 9.390, 0.00000
9.400, 0.00000, 9.410, 0.00000, 9.420, 0.00000, 9.430, 0.00000
9.440, 0.00000, 9.450, 0.00000, 9.460, 0.00000, 9.470, 0.00000
9.480, 0.00000, 9.490, 0.00000, 9.500, 0.00000, 9.510, 0.00000
9.520, 0.00000, 9.530, 0.00000, 9.540, 0.00000, 9.550, 0.00000
9.560, 0.00000, 9.570, 0.00000, 9.580, 0.00000, 9.590, 0.00000
9.600, 0.00000, 9.610, 0.00000, 9.620, 0.00000, 9.630, 0.00000
9.640, 0.00000, 9.650, 0.00000, 9.660, 0.00000, 9.670, 0.00000
9.680, 0.00000, 9.690, 0.00000, 9.700, 0.00000, 9.710, 0.00000
9.720, 0.00000, 9.730, 0.00000, 9.740, 0.00000, 9.750, 0.00000
9.760, 0.00000, 9.770, 0.00000, 9.780, 0.00000, 9.790, 0.00000
9.800, 0.00000, 9.810, 0.00000, 9.820, 0.00000, 9.830, 0.00000
9.840, 0.00000, 9.850, 0.00000, 9.860, 0.00000, 9.870, 0.00000
9.880, 0.00000, 9.890, 0.00000, 9.900, 0.00000, 9.910, 0.00000
9.920, 0.00000, 9.930, 0.00000, 9.940, 0.00000, 9.950, 0.00000
9.960, 0.00000, 9.970, 0.00000, 9.980, 0.00000, 9.990, 0.00000
*AMPLITUDE, NAME=ROW11
0.000, 0.00000, 0.010, -4986.15261, 0.020, -9972.30521, 0.030, -14958.45782
0.040, -19944.61043, 0.050, -24930.76303, 0.060, -23684.22488, 0.070, -22437.68673
0.080, -21191.14858, 0.090, -19944.61043, 0.100, -18698.07228, 0.110, -17451.53412
0.120, -16204.99597, 0.130, -14958.45782, 0.140, -13711.91967, 0.150, -12465.38152
0.160, -11218.84337, 0.170, -9972.30521, 0.180, -8725.76706, 0.190, -7479.22891
0.200, -6232.69076, 0.210, -4986.15261, 0.220, -3739.61446, 0.230, -2493.07630
0.240, -1246.53815, 0.250, 0.00000, 0.260, 0.00000, 0.270, 0.00000
0.280, 0.00000, 0.290, 0.00000, 0.300, 0.00000, 0.310, 0.00000
0.320, 0.00000, 0.330, 0.00000, 0.340, 0.00000, 0.350, 0.00000
0.360, 0.00000, 0.370, 0.00000, 0.380, 0.00000, 0.390, 0.00000
0.400, 0.00000, 0.410, 0.00000, 0.420, 0.00000, 0.430, 0.00000
0.440, 0.00000, 0.450, 0.00000, 0.460, 0.00000, 0.470, 0.00000
0.480, 0.00000, 0.490, 0.00000, 0.500, 0.00000, 0.510, 0.00000
0.520, 0.00000, 0.530, 0.00000, 0.540, 0.00000, 0.550, 0.00000
0.560, 0.00000, 0.570, 0.00000, 0.580, 0.00000, 0.590, 0.00000
0.600, 0.00000, 0.610, 0.00000, 0.620, 0.00000, 0.630, 0.00000
0.640, 0.00000, 0.650, 0.00000, 0.660, 0.00000, 0.670, 0.00000
0.680, 0.00000, 0.690, 0.00000, 0.700, 0.00000, 0.710, 0.00000
0.720, 0.00000, 0.730, 0.00000, 0.740, 0.00000, 0.750, 0.00000
0.760, 0.00000, 0.770, 0.00000, 0.780, 0.00000, 0.790, 0.00000
0.800, 0.00000, 0.810, 0.00000, 0.820, 0.00000, 0.830, 0.00000
0.840, 0.00000, 0.850, 0.00000, 0.860, 0.00000, 0.870, 0.00000
0.880, 0.00000, 0.890, 0.00000, 0.900, 0.00000, 0.910, 0.00000
0.920, 0.00000, 0.930, 0.00000, 0.940, 0.00000, 0.950, 0.00000
0.960, 0.00000, 0.970, 0.00000, 0.980, 0.00000, 0.990, 0.00000
1.000, 0.00000, 1.010, 0.00000, 1.020, 0.00000, 1.030, 0.00000
1.040, 0.00000, 1.050, 0.00000, 1.060, 0.00000, 1.070, 0.00000
1.080, 0.00000, 1.090, 0.00000, 1.100, 0.00000, 1.110, 0.00000
1.120, 0.00000, 1.130, 0.00000, 1.140, 0.00000, 1.150, 0.00000
1.160, 0.00000, 1.170, 0.00000, 1.180, 0.00000, 1.190, 0.00000
1.200, 0.00000, 1.210, 0.00000, 1.220, 0.00000, 1.230, 0.00000
1.240, 0.00000, 1.250, 0.00000, 1.260, 0.00000, 1.270, 0.00000
1.280, 0.00000, 1.290, 0.00000, 1.300, 0.00000, 1.310, 0.00000
1.320, 0.00000, 1.330, 0.00000, 1.340, 0.00000, 1.350, 0.00000
1.360, 0.00000, 1.370, 0.00000, 1.380, 0.00000, 1.390, 0.00000
1.400, 0.00000, 1.410, 0.00000, 1.420, 0.00000, 1.430, 0.00000
1.440, 0.00000, 1.450, 0.00000, 1.460, 0.00000, 1.470, 0.00000
1.480, 0.00000, 1.490, 0.00000, 1.500, 0.00000, 1.510, 0.00000
1.520, 0.00000, 1.530, 0.00000, 1.540, 0.00000, 1.550, 0.00000
1.560, 0.00000, 1.570, 0.00000, 1.580, 0.00000, 1.590, 0.00000
1.600, 0.00000, 1.610, 0.00000, 1.620, 0.00000, 1.630, 0.00000
1.640, 0.00000, 1.650, 0.00000, 1.660, 0.00000, 1.670, 0.00000
1.680, 0.00000, 1.690, 0.00000, 1.700, 0.00000, 1.710, 0.00000
1.720, 0.00000, 1.730, 0.00000, 1.740, 0.00000, 1.750, 0.00000
1.760, 0.00000, 1.770, 0.00000, 1.780, 0.00000, 1.790, 0.00000
1.800, 0.00000, 1.810, 0.00000, 1.820, 0.00000, 1.830, 0.00000
1.840, 0.00000, 1.850, 0.00000, 1.860, 0.00000, 1.870, 0.00000
1.880, 0.00000, 1.890, 0.00000, 1.900, 0.00000, 1.910, 0.00000
1.920, 0.00000, 1.930, 0.00000, 1.940, 0.00000, 1.950, 0.00000
1.960, 0.00000, 1.970, 0.00000, 1.980, 0.00000, 1.990, 0.00000
2.000, 0.00000, 2.010, -5111.07101, 2.020, -10222.14202, 2.030, -15333.21303
2.040, -20444.28405, 2.050, -25555.35506, 2.060, -24277.58730, 2.070, -22999.81955
2.080, -21722.05180, 2.090, -20444.28405, 2.100, -19166.51629, 2.110, -17888.74854
2.120, -16610.98079, 2.130, -15333.21303, 2.140, -14055.44528, 2.150, -12777.67753
2.160, -11499.90978, 2.170, -10222.14202, 2.180, -8944.37427, 2.190, -7666.60652
2.200, -6388.83876, 2.210, -5111.07101, 2.220, -3833.30326, 2.230, -2555.53551
2.240, -1277.76775, 2.250, 0.00000, 2.260, 0.00000, 2.270, 0.00000
2.280, 0.00000, 2.290, 0.00000, 2.300, 0.00000, 2.310, 0.00000
2.320, 0.00000, 2.330, 0.00000, 2.340, 0.00000, 2.350, 0.00000
2.360, 0.00000, 2.370, 0.00000, 2.380, 0.00000, 2.390, 0.00000
2.400, 0.00000, 2.410, 0.00000, 2.420, 0.00000, 2.430, 0.00000
2.440, 0.00000, 2.450, 0.00000, 2.460, 0.00000, 2.470, 0.00000
2.480, 0.00000, 2.490, 0.00000, 2.500, 0.00000, 2.510, 0.00000
2.520, 0.00000, 2.530, 0.00000, 2.540, 0.00000, 2.550, 0.00000
2.560, 0.00000, 2.570, 0.00000, 2.580, 0.00000, 2.590, 0.00000
2.600, 0.00000, 2.610, 0.00000, 2.620, 0.00000, 2.630, 0.00000
2.640, 0.00000, 2.650, 0.00000, 2.660, 0.00000, 2.670, 0.00000
2.680, 0.00000, 2.690, 0.00000, 2.700, 0.00000, 2.710, 0.00000
2.720, 0.00000, 2.730, 0.00000, 2.740, 0.00000, 2.750, 0.00000
2.760, 0.00000, 2.770, 0.00000, 2.780, 0.00000, 2.790, 0.00000
2.800, 0.00000, 2.810, 0.00000, 2.820, 0.00000, 2.830, 0.00000
2.840, 0.00000, 2.850, 0.00000, 2.860, 0.00000, 2.870, 0.00000
2.880, 0.00000, 2.890, 0.00000, 2.900, 0.00000, 2.910, 0.00000
2.920, 0.00000, 2.930, 0.00000, 2.940, 0.00000, 2.950, 0.00000
2.960, 0.00000, 2.970, 0.00000, 2.980, 0.00000, 2.990, 0.00000
3.000, 0.00000, 3.010, 0.00000, 3.020, 0.00000, 3.030, 0.00000
3.040, 0.00000, 3.050, 0.00000, 3.060, 0.00000, 3.070, 0.00000
3.080, 0.00000, 3.090, 0.00000, 3.100, 0.00000, 3.110, 0.00000
3.120, 0.00000, 3.130, 0.00000, 3.140, 0.00000, 3.150, 0.00000
3.160, 0.00000, 3.170, 0.00000, 3.180, 0.00000, 3.190, 0.00000
3.200, 0.00000, 3.210, 0.00000, 3.220, 0.00000, 3.230, 0.00000
3.240, 0.00000, 3.250, 0.00000, 3.260, 0.00000, 3.270, 0.00000
3.280, 0.00000, 3.290, 0.00000, 3.300, 0.00000, 3.310, 0.00000
3.320, 0.00000, 3.330, 0.00000, 3.340, 0.00000, 3.350, 0.00000
3.360, 0.00000, 3.370, 0.00000, 3.380, 0.00000, 3.390, 0.00000
3.400, 0.00000, 3.410, 0.00000, 3.420, 0.00000, 3.430, 0.00000
3.440, 0.00000, 3.450, 0.00000, 3.460, 0.00000, 3.470, 0.00000
3.480, 0.00000, 3.490, 0.00000, 3.500, 0.00000, 3.510, 0.00000
3.520, 0.00000, 3.530, 0.00000, 3.540, 0.00000, 3.550, 0.00000
3.560, 0.00000, 3.570, 0.00000, 3.580, 0.00000, 3.590, 0.00000
3.600, 0.00000, 3.610, 0.00000, 3.620, 0.00000, 3.630, 0.00000
3.640, 0.00000, 3.650, 0.00000, 3.660, 0.00000, 3.670, 0.00000
3.680, 0.00000, 3.690, 0.00000, 3.700, 0.00000, 3.710, 0.00000
3.720, 0.00000, 3.730, 0.00000, 3.740, 0.00000, 3.750, 0.00000
3.760, 0.00000, 3.770, 0.00000, 3.780, 0.00000, 3.790, 0.00000
3.800, 0.00000, 3.810, 0.00000, 3.820, 0.00000, 3.830, 0.00000
3.840, 0.00000, 3.850, 0.00000, 3.860, 0.00000, 3.870, 0.00000
3.880, 0.00000, 3.890, 0.00000, 3.900, 0.00000, 3.910, 0.00000
3.920, 0.00000, 3.930, 0.00000, 3.940, 0.00000, 3.950, 0.00000
3.960, 0.00000, 3.970, 0.00000, 3.980, 0.00000, 3.990, 0.00000
4.000, 0.00000, 4.010, -5218.82336, 4.020, -10437.64671, 4.030, -15656.47007
4.040, -20875.29342, 4.050, -26094.11678, 4.060, -24789.41094, 4.070, -23484.70510
4.080, -22179.99926, 4.090, -20875.29342, 4.100, -19570.58758, 4.110, -18265.88174
4.120, -16961.17591, 4.130, -15656.47007, 4.140, -14351.76423, 4.150, -13047.05839
4.160, -11742.35255, 4.170, -10437.64671, 4.180, -9132.94087, 4.190, -7828.23503
4.200, -6523.52919, 4.210, -5218.82336, 4.220, -3914.11752, 4.230, -2609.41168
4.240, -1304.70584, 4.250, 0.00000, 4.260, 0.00000, 4.270, 0.00000
4.280, 0.00000, 4.290, 0.00000, 4.300, 0.00000, 4.310, 0.00000
4.320, 0.00000, 4.330, 0.00000, 4.340, 0.00000, 4.350, 0.00000
4.360, 0.00000, 4.370, 0.00000, 4.380, 0.00000, 4.390, 0.00000
4.400, 0.00000, 4.410, 0.00000, 4.420, 0.00000, 4.430, 0.00000
4.440, 0.00000, 4.450, 0.00000, 4.460, 0.00000, 4.470, 0.00000
4.480, 0.00000, 4.490, 0.00000, 4.500, 0.00000, 4.510, 0.00000
4.520, 0.00000, 4.530, 0.00000, 4.540, 0.00000, 4.550, 0.00000
4.560, 0.00000, 4.570, 0.00000, 4.580, 0.00000, 4.590, 0.00000
4.600, 0.00000, 4.610, 0.00000, 4.620, 0.00000, 4.630, 0.00000
4.640, 0.00000, 4.650, 0.00000, 4.660, 0.00000, 4.670, 0.00000
4.680, 0.00000, 4.690, 0.00000, 4.700, 0.00000, 4.710, 0.00000
4.720, 0.00000, 4.730, 0.00000, 4.740, 0.00000, 4.750, 0.00000
4.760, 0.00000, 4.770, 0.00000, 4.780, 0.00000, 4.790, 0.00000
4.800, 0.00000, 4.810, 0.00000, 4.820, 0.00000, 4.830, 0.00000
4.840, 0.00000, 4.850, 0.00000, 4.860, 0.00000, 4.870, 0.00000
4.880, 0.00000, 4.890, 0.00000, 4.900, 0.00000, 4.910, 0.00000
4.920, 0.00000, 4.930, 0.00000, 4.940, 0.00000, 4.950, 0.00000
4.960, 0.00000, 4.970, 0.00000, 4.980, 0.00000, 4.990, 0.00000
5.000, 0.00000, 5.010, 0.00000, 5.020, 0.00000, 5.030, 0.00000
5.040, 0.00000, 5.050, 0.00000, 5.060, 0.00000, 5.070, 0.00000
5.080, 0.00000, 5.090, 0.00000, 5.100, 0.00000, 5.110, 0.00000
5.120, 0.00000, 5.130, 0.00000, 5.140, 0.00000, 5.150, 0.00000
5.160, 0.00000, 5.170, 0.00000, 5.180, 0.00000, 5.190, 0.00000
5.200, 0.00000, 5.210, 0.00000, 5.220, 0.00000, 5.230, 0.00000
5.240, 0.00000, 5.250, 0.00000, 5.260, 0.00000, 5.270, 0.00000
5.280, 0.00000, 5.290, 0.00000, 5.300, 0.00000, 5.310, 0.00000
5.320, 0.00000, 5.330, 0.00000, 5.340, 0.00000, 5.350, 0.00000
5.360, 0.00000, 5.370, 0.00000, 5.380, 0.00000, 5.390, 0.00000
5.400, 0.00000, 5.410, 0.00000, 5.420, 0.00000, 5.430, 0.00000
5.440, 0.00000, 5.450, 0.00000, 5.460, 0.00000, 5.470, 0.00000
5.480, 0.00000, 5.490, 0.00000, 5.500, 0.00000, 5.510, 0.00000
5.520, 0.00000, 5.530, 0.00000, 5.540, 0.00000, 5.550, 0.00000
5.560, 0.00000, 5.570, 0.00000, 5.580, 0.00000, 5.590, 0.00000
5.600, 0.00000, 5.610, 0.00000, 5.620, 0.00000, 5.630, 0.00000
5.640, 0.00000, 5.650, 0.00000, 5.660, 0.00000, 5.670, 0.00000
5.680, 0.00000, 5.690, 0.00000, 5.700, 0.00000, 5.710, 0.00000
5.720, 0.00000, 5.730, 0.00000, 5.740, 0.00000, 5.750, 0.00000
5.760, 0.00000, 5.770, 0.00000, 5.780, 0.00000, 5.790, 0.00000
5.800, 0.00000, 5.810, 0.00000, 5.820, 0.00000, 5.830, 0.00000
5.840, 0.00000, 5.850, 0.00000, 5.860, 0.00000, 5.870, 0.00000
5.880, 0.00000, 5.890, 0.00000, 5.900, 0.00000, 5.910, 0.00000
5.920, 0.00000, 5.930, 0.00000, 5.940, 0.00000, 5.950, 0.00000
5.960, 0.00000, 5.970, 0.00000, 5.980, 0.00000, 5.990, 0.00000
6.000, 0.00000, 6.010, -5311.99030, 6.020, -10623.98059, 6.030, -15935.97089
6.040, -21247.96118, 6.050, -26559.95148, 6.060, -25231.95390, 6.070, -23903.95633
6.080, -22575.95876, 6.090, -21247.96118, 6.100, -19919.96361, 6.110, -18591.96603
6.120, -17263.96846, 6.130, -15935.97089, 6.140, -14607.97331, 6.150, -13279.97574
6.160, -11951.97816, 6.170, -10623.98059, 6.180, -9295.98302, 6.190, -7967.98544
6.200, -6639.98787, 6.210, -5311.99030, 6.220, -3983.99272, 6.230, -2655.99515
6.240, -1327.99757, 6.250, 0.00000, 6.260, 0.00000, 6.270, 0.00000
6.280, 0.00000, 6.290, 0.00000, 6.300, 0.00000, 6.310, 0.00000
6.320, 0.00000, 6.330, 0.00000, 6.340, 0.00000, 6.350, 0.00000
6.360, 0.00000, 6.370, 0.00000, 6.380, 0.00000, 6.390, 0.00000
6.400, 0.00000, 6.410, 0.00000, 6.420, 0.00000, 6.430, 0.00000
6.440, 0.00000, 6.450, 0.00000, 6.460, 0.00000, 6.470, 0.00000
6.480, 0.00000, 6.490, 0.00000, 6.500, 0.00000, 6.510, 0.00000
6.520, 0.00000, 6.530, 0.00000, 6.540, 0.00000, 6.550, 0.00000
6.560, 0.00000, 6.570, 0.00000, 6.580, 0.00000, 6.590, 0.00000
6.600, 0.00000, 6.610, 0.00000, 6.620, 0.00000, 6.630, 0.00000
6.640, 0.00000, 6.650, 0.00000, 6.660, 0.00000, 6.670, 0.00000
6.680, 0.00000, 6.690, 0.00000, 6.700, 0.00000, 6.710, 0.00000
6.720, 0.00000, 6.730, 0.00000, 6.740, 0.00000, 6.750, 0.00000
6.760, 0.00000, 6.770, 0.00000, 6.780, 0.00000, 6.790, 0.00000
6.800, 0.00000, 6.810, 0.00000, 6.820, 0.00000, 6.830, 0.00000
6.840, 0.00000, 6.850, 0.00000, 6.860, 0.00000, 6.870, 0.00000
6.880, 0.00000, 6.890, 0.00000, 6.900, 0.00000, 6.910, 0.00000
6.920, 0.00000, 6.930, 0.00000, 6.940, 0.00000, 6.950, 0.00000
6.960, 0.00000, 6.970, 0.00000, 6.980, 0.00000, 6.990, 0.00000
7.000, 0.00000, 7.010, 0.00000, 7.020, 0.00000, 7.030, 0.00000
7.040, 0.00000, 7.050, 0.00000, 7.060, 0.00000, 7.070, 0.00000
7.080, 0.00000, 7.090, 0.00000, 7.100, 0.00000, 7.110, 0.00000
7.120, 0.00000, 7.130, 0.00000, 7.140, 0.00000, 7.150, 0.00000
7.160, 0.00000, 7.170, 0.00000, 7.180, 0.00000, 7.190, 0.00000
7.200, 0.00000, 7.210, 0.00000, 7.220, 0.00000, 7.230, 0.00000
7.240, 0.00000, 7.250, 0.00000, 7.260, 0.00000, 7.270, 0.00000
7.280, 0.00000, 7.290, 0.00000, 7.300, 0.00000, 7.310, 0.00000
7.320, 0.00000, 7.330, 0.00000, 7.340, 0.00000, 7.350, 0.00000
7.360, 0.00000, 7.370, 0.00000, 7.380, 0.00000, 7.390, 0.00000
7.400, 0.00000, 7.410, 0.00000, 7.420, 0.00000, 7.430, 0.00000
7.440, 0.00000, 7.450, 0.00000, 7.460, 0.00000, 7.470, 0.00000
7.480, 0.00000, 7.490, 0.00000, 7.500, 0.00000, 7.510, 0.00000
7.520, 0.00000, 7.530, 0.00000, 7.540, 0.00000, 7.550, 0.00000
7.560, 0.00000, 7.570, 0.00000, 7.580, 0.00000, 7.590, 0.00000
7.600, 0.00000, 7.610, 0.00000, 7.620, 0.00000, 7.630, 0.00000
7.640, 0.00000, 7.650, 0.00000, 7.660, 0.00000, 7.670, 0.00000
7.680, 0.00000, 7.690, 0.00000, 7.700, 0.00000, 7.710, 0.00000
7.720, 0.00000, 7.730, 0.00000, 7.740, 0.00000, 7.750, 0.00000
7.760, 0.00000, 7.770, 0.00000, 7.780, 0.00000, 7.790, 0.00000
7.800, 0.00000, 7.810, 0.00000, 7.820, 0.00000, 7.830, 0.00000
7.840, 0.00000, 7.850, 0.00000, 7.860, 0.00000, 7.870, 0.00000
7.880, 0.00000, 7.890, 0.00000, 7.900, 0.00000, 7.910, 0.00000
7.920, 0.00000, 7.930, 0.00000, 7.940, 0.00000, 7.950, 0.00000
7.960, 0.00000, 7.970, 0.00000, 7.980, 0.00000, 7.990, 0.00000
8.000, 0.00000, 8.010, -5394.37271, 8.020, -10788.74542, 8.030, -16183.11813
8.040, -21577.49084, 8.050, -26971.86355, 8.060, -25623.27037, 8.070, -24274.67719
8.080, -22926.08401, 8.090, -21577.49084, 8.100, -20228.89766, 8.110, -18880.30448
8.120, -17531.71130, 8.130, -16183.11813, 8.140, -14834.52495, 8.150, -13485.93177
8.160, -12137.33860, 8.170, -10788.74542, 8.180, -9440.15224, 8.190, -8091.55906
8.200, -6742.96589, 8.210, -5394.37271, 8.220, -4045.77953, 8.230, -2697.18635
8.240, -1348.59318, 8.250, 0.00000, 8.260, 0.00000, 8.270, 0.00000
8.280, 0.00000, 8.290, 0.00000, 8.300, 0.00000, 8.310, 0.00000
8.320, 0.00000, 8.330, 0.00000, 8.340, 0.00000, 8.350, 0.00000
8.360, 0.00000, 8.370, 0.00000, 8.380, 0.00000, 8.390, 0.00000
8.400, 0.00000, 8.410, 0.00000, 8.420, 0.00000, 8.430, 0.00000
8.440, 0.00000, 8.450, 0.00000, 8.460, 0.00000, 8.470, 0.00000
8.480, 0.00000, 8.490, 0.00000, 8.500, 0.00000, 8.510, 0.00000
8.520, 0.00000, 8.530, 0.00000, 8.540, 0.00000, 8.550, 0.00000
8.560, 0.00000, 8.570, 0.00000, 8.580, 0.00000, 8.590, 0.00000
8.600, 0.00000, 8.610, 0.00000, 8.620, 0.00000, 8.630, 0.00000
8.640, 0.00000, 8.650, 0.00000, 8.660, 0.00000, 8.670, 0.00000
8.680, 0.00000, 8.690, 0.00000, 8.700, 0.00000, 8.710, 0.00000
8.720, 0.00000, 8.730, 0.00000, 8.740, 0.00000, 8.750, 0.00000
8.760, 0.00000, 8.770, 0.00000, 8.780, 0.00000, 8.790, 0.00000
8.800, 0.00000, 8.810, 0.00000, 8.820, 0.00000, 8.830, 0.00000
8.840, 0.00000, 8.850, 0.00000, 8.860, 0.00000, 8.870, 0.00000
8.880, 0.00000, 8.890, 0.00000, 8.900, 0.00000, 8.910, 0.00000
8.920, 0.00000, 8.930, 0.00000, 8.940, 0.00000, 8.950, 0.00000
8.960, 0.00000, 8.970, 0.00000, 8.980, 0.00000, 8.990, 0.00000
9.000, 0.00000, 9.010, 0.00000, 9.020, 0.00000, 9.030, 0.00000
9.040, 0.00000, 9.050, 0.00000, 9.060, 0.00000, 9.070, 0.00000
9.080, 0.00000, 9.090, 0.00000, 9.100, 0.00000, 9.110, 0.00000
9.120, 0.00000, 9.130, 0.00000, 9.140, 0.00000, 9.150, 0.00000
9.160, 0.00000, 9.170, 0.00000, 9.180, 0.00000, 9.190, 0.00000
9.200, 0.00000, 9.210, 0.00000, 9.220, 0.00000, 9.230, 0.00000
9.240, 0.00000, 9.250, 0.00000, 9.260, 0.00000, 9.270, 0.00000
9.280, 0.00000, 9.290, 0.00000, 9.300, 0.00000, 9.310, 0.00000
9.320, 0.00000, 9.330, 0.00000, 9.340, 0.00000, 9.350, 0.00000
9.360, 0.00000, 9.370, 0.00000, 9.380, 0.00000, 9.390, 0.00000
9.400, 0.00000, 9.410, 0.00000, 9.420, 0.00000, 9.430, 0.00000
9.440, 0.00000, 9.450, 0.00000, 9.460, 0.00000, 9.470, 0.00000
9.480, 0.00000, 9.490, 0.00000, 9.500, 0.00000, 9.510, 0.00000
9.520, 0.00000, 9.530, 0.00000, 9.540, 0.00000, 9.550, 0.00000
9.560, 0.00000, 9.570, 0.00000, 9.580, 0.00000, 9.590, 0.00000
9.600, 0.00000, 9.610, 0.00000, 9.620, 0.00000, 9.630, 0.00000
9.640, 0.00000, 9.650, 0.00000, 9.660, 0.00000, 9.670, 0.00000
9.680, 0.00000, 9.690, 0.00000, 9.700, 0.00000, 9.710, 0.00000
9.720, 0.00000, 9.730, 0.00000, 9.740, 0.00000, 9.750, 0.00000
9.760, 0.00000, 9.770, 0.00000, 9.780, 0.00000, 9.790, 0.00000
9.800, 0.00000, 9.810, 0.00000, 9.820, 0.00000, 9.830, 0.00000
9.840, 0.00000, 9.850, 0.00000, 9.860, 0.00000, 9.870, 0.00000
9.880, 0.00000, 9.890, 0.00000, 9.900, 0.00000, 9.910, 0.00000
9.920, 0.00000, 9.930, 0.00000, 9.940, 0.00000, 9.950, 0.00000
9.960, 0.00000, 9.970, 0.00000, 9.980, 0.00000, 9.990, 0.00000
*AMPLITUDE, NAME=ROW12
0.000, 0.00000, 0.010, -4675.06073, 0.020, -9350.12146, 0.030, -14025.18219
0.040, -18700.24292, 0.050, -23375.30365, 0.060, -22206.53846, 0.070, -21037.77328
0.080, -19869.00810, 0.090, -18700.24292, 0.100, -17531.47773, 0.110, -16362.71255
0.120, -15193.94737, 0.130, -14025.18219, 0.140, -12856.41701, 0.150, -11687.65182
0.160, -10518.88664, 0.170, -9350.12146, 0.180, -8181.35628, 0.190, -7012.59109
0.200, -5843.82591, 0.210, -4675.06073, 0.220, -3506.29555, 0.230, -2337.53036
0.240, -1168.76518, 0.250, 0.00000, 0.260, 0.00000, 0.270, 0.00000
0.280, 0.00000, 0.290, 0.00000, 0.300, 0.00000, 0.310, 0.00000
0.320, 0.00000, 0.330, 0.00000, 0.340, 0.00000, 0.350, 0.00000
0.360, 0.00000, 0.370, 0.00000, 0.380, 0.00000, 0.390, 0.00000
0.400, 0.00000, 0.410, 0.00000, 0.420, 0.00000, 0.430, 0.00000
0.440, 0.00000, 0.450, 0.00000, 0.460, 0.00000, 0.470, 0.00000
0.480, 0.00000, 0.490, 0.00000, 0.500, 0.00000, 0.510, 0.00000
0.520, 0.00000, 0.530, 0.00000, 0.540, 0.00000, 0.550, 0.00000
0.560, 0.00000, 0.570, 0.00000, 0.580, 0.00000, 0.590, 0.00000
0.600, 0.00000, 0.610, 0.00000, 0.620, 0.00000, 0.630, 0.00000
0.640, 0.00000, 0.650, 0.00000, 0.660, 0.00000, 0.670, 0.00000
0.680, 0.00000, 0.690, 0.00000, 0.700, 0.00000, 0.710, 0.00000
0.720, 0.00000, 0.730, 0.00000, 0.740, 0.00000, 0.750, 0.00000
0.760, 0.00000, 0.770, 0.00000, 0.780, 0.00000, 0.790, 0.00000
0.800, 0.00000, 0.810, 0.00000, 0.820, 0.00000, 0.830, 0.00000
0.840, 0.00000, 0.850, 0.00000, 0.860, 0.00000, 0.870, 0.00000
0.880, 0.00000, 0.890, 0.00000, 0.900, 0.00000, 0.910, 0.00000
0.920, 0.00000, 0.930, 0.00000, 0.940, 0.00000, 0.950, 0.00000
0.960, 0.00000, 0.970, 0.00000, 0.980, 0.00000, 0.990, 0.00000
1.000, 0.00000, 1.010, 0.00000, 1.020, 0.00000, 1.030, 0.00000
1.040, 0.00000, 1.050, 0.00000, 1.060, 0.00000, 1.070, 0.00000
1.080, 0.00000, 1.090, 0.00000, 1.100, 0.00000, 1.110, 0.00000
1.120, 0.00000, 1.130, 0.00000, 1.140, 0.00000, 1.150, 0.00000
1.160, 0.00000, 1.170, 0.00000, 1.180, 0.00000, 1.190, 0.00000
1.200, 0.00000, 1.210, 0.00000, 1.220, 0.00000, 1.230, 0.00000
1.240, 0.00000, 1.250, 0.00000, 1.260, 0.00000, 1.270, 0.00000
1.280, 0.00000, 1.290, 0.00000, 1.300, 0.00000, 1.310, 0.00000
1.320, 0.00000, 1.330, 0.00000, 1.340, 0.00000, 1.350, 0.00000
1.360, 0.00000, 1.370, 0.00000, 1.380, 0.00000, 1.390, 0.00000
1.400, 0.00000, 1.410, 0.00000, 1.420, 0.00000, 1.430, 0.00000
1.440, 0.00000, 1.450, 0.00000, 1.460, 0.00000, 1.470, 0.00000
1.480, 0.00000, 1.490, 0.00000, 1.500, 0.00000, 1.510, 0.00000
1.520, 0.00000, 1.530, 0.00000, 1.540, 0.00000, 1.550, 0.00000
1.560, 0.00000, 1.570, 0.00000, 1.580, 0.00000, 1.590, 0.00000
1.600, 0.00000, 1.610, 0.00000, 1.620, 0.00000, 1.630, 0.00000
1.640, 0.00000, 1.650, 0.00000, 1.660, 0.00000, 1.670, 0.00000
1.680, 0.00000, 1.690, 0.00000, 1.700, 0.00000, 1.710, 0.00000
1.720, 0.00000, 1.730, 0.00000, 1.740, 0.00000, 1.750, 0.00000
1.760, 0.00000, 1.770, 0.00000, 1.780, 0.00000, 1.790, 0.00000
1.800, 0.00000, 1.810, 0.00000, 1.820, 0.00000, 1.830, 0.00000
1.840, 0.00000, 1.850, 0.00000, 1.860, 0.00000, 1.870, 0.00000
1.880, 0.00000, 1.890, 0.00000, 1.900, 0.00000, 1.910, 0.00000
1.920, 0.00000, 1.930, 0.00000, 1.940, 0.00000, 1.950, 0.00000
1.960, 0.00000, 1.970, 0.00000, 1.980, 0.00000, 1.990, 0.00000
2.000, 0.00000, 2.010, -4974.84462, 2.020, -9949.68923, 2.030, -14924.53385
2.040, -19899.37846, 2.050, -24874.22308, 2.060, -23630.51193, 2.070, -22386.80077
2.080, -21143.08962, 2.090, -19899.37846, 2.100, -18655.66731, 2.110, -17411.95616
2.120, -16168.24500, 2.130, -14924.53385, 2.140, -13680.82269, 2.150, -12437.11154
2.160, -11193.40039, 2.170, -9949.68923, 2.180, -8705.97808, 2.190, -7462.26692
2.200, -6218.55577, 2.210, -4974.84462, 2.220, -3731.13346, 2.230, -2487.42231
2.240, -1243.71115, 2.250, 0.00000, 2.260, 0.00000, 2.270, 0.00000
2.280, 0.00000, 2.290, 0.00000, 2.300, 0.00000, 2.310, 0.00000
2.320, 0.00000, 2.330, 0.00000, 2.340, 0.00000, 2.350, 0.00000
2.360, 0.00000, 2.370, 0.00000, 2.380, 0.00000, 2.390, 0.00000
2.400, 0.00000, 2.410, 0.00000, 2.420, 0.00000, 2.430, 0.00000
2.440, 0.00000, 2.450, 0.00000, 2.460, 0.00000, 2.470, 0.00000
2.480, 0.00000, 2.490, 0.00000, 2.500, 0.00000, 2.510, 0.00000
2.520, 0.00000, 2.530, 0.00000, 2.540, 0.00000, 2.550, 0.00000
2.560, 0.00000, 2.570, 0.00000, 2.580, 0.00000, 2.590, 0.00000
2.600, 0.00000, 2.610, 0.00000, 2.620, 0.00000, 2.630, 0.00000
2.640, 0.00000, 2.650, 0.00000, 2.660, 0.00000, 2.670, 0.00000
2.680, 0.00000, 2.690, 0.00000, 2.700, 0.00000, 2.710, 0.00000
2.720, 0.00000, 2.730, 0.00000, 2.740, 0.00000, 2.750, 0.00000
2.760, 0.00000, 2.770, 0.00000, 2.780, 0.00000, 2.790, 0.00000
2.800, 0.00000, 2.810, 0.00000, 2.820, 0.00000, 2.830, 0.00000
2.840, 0.00000, 2.850, 0.00000, 2.860, 0.00000, 2.870, 0.00000
2.880, 0.00000, 2.890, 0.00000, 2.900, 0.00000, 2.910, 0.00000
2.920, 0.00000, 2.930, 0.00000, 2.940, 0.00000, 2.950, 0.00000
2.960, 0.00000, 2.970, 0.00000, 2.980, 0.00000, 2.990, 0.00000
3.000, 0.00000, 3.010, 0.00000, 3.020, 0.00000, 3.030, 0.00000
3.040, 0.00000, 3.050, 0.00000, 3.060, 0.00000, 3.070, 0.00000
3.080, 0.00000, 3.090, 0.00000, 3.100, 0.00000, 3.110, 0.00000
3.120, 0.00000, 3.130, 0.00000, 3.140, 0.00000, 3.150, 0.00000
3.160, 0.00000, 3.170, 0.00000, 3.180, 0.00000, 3.190, 0.00000
3.200, 0.00000, 3.210, 0.00000, 3.220, 0.00000, 3.230, 0.00000
3.240, 0.00000, 3.250, 0.00000, 3.260, 0.00000, 3.270, 0.00000
3.280, 0.00000, 3.290, 0.00000, 3.300, 0.00000, 3.310, 0.00000
3.320, 0.00000, 3.330, 0.00000, 3.340, 0.00000, 3.350, 0.00000
3.360, 0.00000, 3.370, 0.00000, 3.380, 0.00000, 3.390, 0.00000
3.400, 0.00000, 3.410, 0.00000, 3.420, 0.00000, 3.430, 0.00000
3.440, 0.00000, 3.450, 0.00000, 3.460, 0.00000, 3.470, 0.00000
3.480, 0.00000, 3.490, 0.00000, 3.500, 0.00000, 3.510, 0.00000
3.520, 0.00000, 3.530, 0.00000, 3.540, 0.00000, 3.550, 0.00000
3.560, 0.00000, 3.570, 0.00000, 3.580, 0.00000, 3.590, 0.00000
3.600, 0.00000, 3.610, 0.00000, 3.620, 0.00000, 3.630, 0.00000
3.640, 0.00000, 3.650, 0.00000, 3.660, 0.00000, 3.670, 0.00000
3.680, 0.00000, 3.690, 0.00000, 3.700, 0.00000, 3.710, 0.00000
3.720, 0.00000, 3.730, 0.00000, 3.740, 0.00000, 3.750, 0.00000
3.760, 0.00000, 3.770, 0.00000, 3.780, 0.00000, 3.790, 0.00000
3.800, 0.00000, 3.810, 0.00000, 3.820, 0.00000, 3.830, 0.00000
3.840, 0.00000, 3.850, 0.00000, 3.860, 0.00000, 3.870, 0.00000
3.880, 0.00000, 3.890, 0.00000, 3.900, 0.00000, 3.910, 0.00000
3.920, 0.00000, 3.930, 0.00000, 3.940, 0.00000, 3.950, 0.00000
3.960, 0.00000, 3.970, 0.00000, 3.980, 0.00000, 3.990, 0.00000
4.000, 0.00000, 4.010, -5126.18006, 4.020, -10252.36012, 4.030, -15378.54017
4.040, -20504.72023, 4.050, -25630.90029, 4.060, -24349.35528, 4.070, -23067.81026
4.080, -21786.26525, 4.090, -20504.72023, 4.100, -19223.17522, 4.110, -17941.63020
4.120, -16660.08519, 4.130, -15378.54017, 4.140, -14096.99516, 4.150, -12815.45015
4.160, -11533.90513, 4.170, -10252.36012, 4.180, -8970.81510, 4.190, -7689.27009
4.200, -6407.72507, 4.210, -5126.18006, 4.220, -3844.63504, 4.230, -2563.09003
4.240, -1281.54501, 4.250, 0.00000, 4.260, 0.00000, 4.270, 0.00000
4.280, 0.00000, 4.290, 0.00000, 4.300, 0.00000, 4.310, 0.00000
4.320, 0.00000, 4.330, 0.00000, 4.340, 0.00000, 4.350, 0.00000
4.360, 0.00000, 4.370, 0.00000, 4.380, 0.00000, 4.390, 0.00000
4.400, 0.00000, 4.410, 0.00000, 4.420, 0.00000, 4.430, 0.00000
4.440, 0.00000, 4.450, 0.00000, 4.460, 0.00000, 4.470, 0.00000
4.480, 0.00000, 4.490, 0.00000, 4.500, 0.00000, 4.510, 0.00000
4.520, 0.00000, 4.530, 0.00000, 4.540, 0.00000, 4.550, 0.00000
4.560, 0.00000, 4.570, 0.00000, 4.580, 0.00000, 4.590, 0.00000
4.600, 0.00000, 4.610, 0.00000, 4.620, 0.00000, 4.630, 0.00000
4.640, 0.00000, 4.650, 0.00000, 4.660, 0.00000, 4.670, 0.00000
4.680, 0.00000, 4.690, 0.00000, 4.700, 0.00000, 4.710, 0.00000
4.720, 0.00000, 4.730, 0.00000, 4.740, 0.00000, 4.750, 0.00000
4.760, 0.00000, 4.770, 0.00000, 4.780, 0.00000, 4.790, 0.00000
4.800, 0.00000, 4.810, 0.00000, 4.820, 0.00000, 4.830, 0.00000
4.840, 0.00000, 4.850, 0.00000, 4.860, 0.00000, 4.870, 0.00000
4.880, 0.00000, 4.890, 0.00000, 4.900, 0.00000, 4.910, 0.00000
4.920, 0.00000, 4.930, 0.00000, 4.940, 0.00000, 4.950, 0.00000
4.960, 0.00000, 4.970, 0.00000, 4.980, 0.00000, 4.990, 0.00000
5.000, 0.00000, 5.010, 0.00000, 5.020, 0.00000, 5.030, 0.00000
5.040, 0.00000, 5.050, 0.00000, 5.060, 0.00000, 5.070, 0.00000
5.080, 0.00000, 5.090, 0.00000, 5.100, 0.00000, 5.110, 0.00000
5.120, 0.00000, 5.130, 0.00000, 5.140, 0.00000, 5.150, 0.00000
5.160, 0.00000, 5.170, 0.00000, 5.180, 0.00000, 5.190, 0.00000
5.200, 0.00000, 5.210, 0.00000, 5.220, 0.00000, 5.230, 0.00000
5.240, 0.00000, 5.250, 0.00000, 5.260, 0.00000, 5.270, 0.00000
5.280, 0.00000, 5.290, 0.00000, 5.300, 0.00000, 5.310, 0.00000
5.320, 0.00000, 5.330, 0.00000, 5.340, 0.00000, 5.350, 0.00000
5.360, 0.00000, 5.370, 0.00000, 5.380, 0.00000, 5.390, 0.00000
5.400, 0.00000, 5.410, 0.00000, 5.420, 0.00000, 5.430, 0.00000
5.440, 0.00000, 5.450, 0.00000, 5.460, 0.00000, 5.470, 0.00000
5.480, 0.00000, 5.490, 0.00000, 5.500, 0.00000, 5.510, 0.00000
5.520, 0.00000, 5.530, 0.00000, 5.540, 0.00000, 5.550, 0.00000
5.560, 0.00000, 5.570, 0.00000, 5.580, 0.00000, 5.590, 0.00000
5.600, 0.00000, 5.610, 0.00000, 5.620, 0.00000, 5.630, 0.00000
5.640, 0.00000, 5.650, 0.00000, 5.660, 0.00000, 5.670, 0.00000
5.680, 0.00000, 5.690, 0.00000, 5.700, 0.00000, 5.710, 0.00000
5.720, 0.00000, 5.730, 0.00000, 5.740, 0.00000, 5.750, 0.00000
5.760, 0.00000, 5.770, 0.00000, 5.780, 0.00000, 5.790, 0.00000
5.800, 0.00000, 5.810, 0.00000, 5.820, 0.00000, 5.830, 0.00000
5.840, 0.00000, 5.850, 0.00000, 5.860, 0.00000, 5.870, 0.00000
5.880, 0.00000, 5.890, 0.00000, 5.900, 0.00000, 5.910, 0.00000
5.920, 0.00000, 5.930, 0.00000, 5.940, 0.00000, 5.950, 0.00000
5.960, 0.00000, 5.970, 0.00000, 5.980, 0.00000, 5.990, 0.00000
6.000, 0.00000, 6.010, -5222.33852, 6.020, -10444.67705, 6.030, -15667.01557
6.040, -20889.35409, 6.050, -26111.69262, 6.060, -24806.10799, 6.070, -23500.52336
6.080, -22194.93872, 6.090, -20889.35409, 6.100, -19583.76946, 6.110, -18278.18483
6.120, -16972.60020, 6.130, -15667.01557, 6.140, -14361.43094, 6.150, -13055.84631
6.160, -11750.26168, 6.170, -10444.67705, 6.180, -9139.09242, 6.190, -7833.50779
6.200, -6527.92315, 6.210, -5222.33852, 6.220, -3916.75389, 6.230, -2611.16926
6.240, -1305.58463, 6.250, 0.00000, 6.260, 0.00000, 6.270, 0.00000
6.280, 0.00000, 6.290, 0.00000, 6.300, 0.00000, 6.310, 0.00000
6.320, 0.00000, 6.330, 0.00000, 6.340, 0.00000, 6.350, 0.00000
6.360, 0.00000, 6.370, 0.00000, 6.380, 0.00000, 6.390, 0.00000
6.400, 0.00000, 6.410, 0.00000, 6.420, 0.00000, 6.430, 0.00000
6.440, 0.00000, 6.450, 0.00000, 6.460, 0.00000, 6.470, 0.00000
6.480, 0.00000, 6.490, 0.00000, 6.500, 0.00000, 6.510, 0.00000
6.520, 0.00000, 6.530, 0.00000, 6.540, 0.00000, 6.550, 0.00000
6.560, 0.00000, 6.570, 0.00000, 6.580, 0.00000, 6.590, 0.00000
6.600, 0.00000, 6.610, 0.00000, 6.620, 0.00000, 6.630, 0.00000
6.640, 0.00000, 6.650, 0.00000, 6.660, 0.00000, 6.670, 0.00000
6.680, 0.00000, 6.690, 0.00000, 6.700, 0.00000, 6.710, 0.00000
6.720, 0.00000, 6.730, 0.00000, 6.740, 0.00000, 6.750, 0.00000
6.760, 0.00000, 6.770, 0.00000, 6.780, 0.00000, 6.790, 0.00000
6.800, 0.00000, 6.810, 0.00000, 6.820, 0.00000, 6.830, 0.00000
6.840, 0.00000, 6.850, 0.00000, 6.860, 0.00000, 6.870, 0.00000
6.880, 0.00000, 6.890, 0.00000, 6.900, 0.00000, 6.910, 0.00000
6.920, 0.00000, 6.930, 0.00000, 6.940, 0.00000, 6.950, 0.00000
6.960, 0.00000, 6.970, 0.00000, 6.980, 0.00000, 6.990, 0.00000
7.000, 0.00000, 7.010, 0.00000, 7.020, 0.00000, 7.030, 0.00000
7.040, 0.00000, 7.050, 0.00000, 7.060, 0.00000, 7.070, 0.00000
7.080, 0.00000, 7.090, 0.00000, 7.100, 0.00000, 7.110, 0.00000
7.120, 0.00000, 7.130, 0.00000, 7.140, 0.00000, 7.150, 0.00000
7.160, 0.00000, 7.170, 0.00000, 7.180, 0.00000, 7.190, 0.00000
7.200, 0.00000, 7.210, 0.00000, 7.220, 0.00000, 7.230, 0.00000
7.240, 0.00000, 7.250, 0.00000, 7.260, 0.00000, 7.270, 0.00000
7.280, 0.00000, 7.290, 0.00000, 7.300, 0.00000, 7.310, 0.00000
7.320, 0.00000, 7.330, 0.00000, 7.340, 0.00000, 7.350, 0.00000
7.360, 0.00000, 7.370, 0.00000, 7.380, 0.00000, 7.390, 0.00000
7.400, 0.00000, 7.410, 0.00000, 7.420, 0.00000, 7.430, 0.00000
7.440, 0.00000, 7.450, 0.00000, 7.460, 0.00000, 7.470, 0.00000
7.480, 0.00000, 7.490, 0.00000, 7.500, 0.00000, 7.510, 0.00000
7.520, 0.00000, 7.530, 0.00000, 7.540, 0.00000, 7.550, 0.00000
7.560, 0.00000, 7.570, 0.00000, 7.580, 0.00000, 7.590, 0.00000
7.600, 0.00000, 7.610, 0.00000, 7.620, 0.00000, 7.630, 0.00000
7.640, 0.00000, 7.650, 0.00000, 7.660, 0.00000, 7.670, 0.00000
7.680, 0.00000, 7.690, 0.00000, 7.700, 0.00000, 7.710, 0.00000
7.720, 0.00000, 7.730, 0.00000, 7.740, 0.00000, 7.750, 0.00000
7.760, 0.00000, 7.770, 0.00000, 7.780, 0.00000, 7.790, 0.00000
7.800, 0.00000, 7.810, 0.00000, 7.820, 0.00000, 7.830, 0.00000
7.840, 0.00000, 7.850, 0.00000, 7.860, 0.00000, 7.870, 0.00000
7.880, 0.00000, 7.890, 0.00000, 7.900, 0.00000, 7.910, 0.00000
7.920, 0.00000, 7.930, 0.00000, 7.940, 0.00000, 7.950, 0.00000
7.960, 0.00000, 7.970, 0.00000, 7.980, 0.00000, 7.990, 0.00000
8.000, 0.00000, 8.010, -5289.75078, 8.020, -10579.50157, 8.030, -15869.25235
8.040, -21159.00313, 8.050, -26448.75392, 8.060, -25126.31622, 8.070, -23803.87853
8.080, -22481.44083, 8.090, -21159.00313, 8.100, -19836.56544, 8.110, -18514.12774
8.120, -17191.69005, 8.130, -15869.25235, 8.140, -14546.81465, 8.150, -13224.37696
8.160, -11901.93926, 8.170, -10579.50157, 8.180, -9257.06387, 8.190, -7934.62618
8.200, -6612.18848, 8.210, -5289.75078, 8.220, -3967.31309, 8.230, -2644.87539
8.240, -1322.43770, 8.250, 0.00000, 8.260, 0.00000, 8.270, 0.00000
8.280, 0.00000, 8.290, 0.00000, 8.300, 0.00000, 8.310, 0.00000
8.320, 0.00000, 8.330, 0.00000, 8.340, 0.00000, 8.350, 0.00000
8.360, 0.00000, 8.370, 0.00000, 8.380, 0.00000, 8.390, 0.00000
8.400, 0.00000, 8.410, 0.00000, 8.420, 0.00000, 8.430, 0.00000
8.440, 0.00000, 8.450, 0.00000, 8.460, 0.00000, 8.470, 0.00000
8.480, 0.00000, 8.490, 0.00000, 8.500, 0.00000, 8.510, 0.00000
8.520, 0.00000, 8.530, 0.00000, 8.540, 0.00000, 8.550, 0.00000
8.560, 0.00000, 8.570, 0.00000, 8.580, 0.00000, 8.590, 0.00000
8.600, 0.00000, 8.610, 0.00000, 8.620, 0.00000, 8.630, 0.00000
8.640, 0.00000, 8.650, 0.00000, 8.660, 0.00000, 8.670, 0.00000
8.680, 0.00000, 8.690, 0.00000, 8.700, 0.00000, 8.710, 0.00000
8.720, 0.00000, 8.730, 0.00000, 8.740, 0.00000, 8.750, 0.00000
8.760, 0.00000, 8.770, 0.00000, 8.780, 0.00000, 8.790, 0.00000
8.800, 0.00000, 8.810, 0.00000, 8.820, 0.00000, 8.830, 0.00000
8.840, 0.00000, 8.850, 0.00000, 8.860, 0.00000, 8.870, 0.00000
8.880, 0.00000, 8.890, 0.00000, 8.900, 0.00000, 8.910, 0.00000
8.920, 0.00000, 8.930, 0.00000, 8.940, 0.00000, 8.950, 0.00000
8.960, 0.00000, 8.970, 0.00000, 8.980, 0.00000, 8.990, 0.00000
9.000, 0.00000, 9.010, 0.00000, 9.020, 0.00000, 9.030, 0.00000
9.040, 0.00000, 9.050, 0.00000, 9.060, 0.00000, 9.070, 0.00000
9.080, 0.00000, 9.090, 0.00000, 9.100, 0.00000, 9.110, 0.00000
9.120, 0.00000, 9.130, 0.00000, 9.140, 0.00000, 9.150, 0.00000
9.160, 0.00000, 9.170, 0.00000, 9.180, 0.00000, 9.190, 0.00000
9.200, 0.00000, 9.210, 0.00000, 9.220, 0.00000, 9.230, 0.00000
9.240, 0.00000, 9.250, 0.00000, 9.260, 0.00000, 9.270, 0.00000
9.280, 0.00000, 9.290, 0.00000, 9.300, 0.00000, 9.310, 0.00000
9.320, 0.00000, 9.330, 0.00000, 9.340, 0.00000, 9.350, 0.00000
9.360, 0.00000, 9.370, 0.00000, 9.380, 0.00000, 9.390, 0.00000
9.400, 0.00000, 9.410, 0.00000, 9.420, 0.00000, 9.430, 0.00000
9.440, 0.00000, 9.450, 0.00000, 9.460, 0.00000, 9.470, 0.00000
9.480, 0.00000, 9.490, 0.00000, 9.500, 0.00000, 9.510, 0.00000
9.520, 0.00000, 9.530, 0.00000, 9.540, 0.00000, 9.550, 0.00000
9.560, 0.00000, 9.570, 0.00000, 9.580, 0.00000, 9.590, 0.00000
9.600, 0.00000, 9.610, 0.00000, 9.620, 0.00000, 9.630, 0.00000
9.640, 0.00000, 9.650, 0.00000, 9.660, 0.00000, 9.670, 0.00000
9.680, 0.00000, 9.690, 0.00000, 9.700, 0.00000, 9.710, 0.00000
9.720, 0.00000, 9.730, 0.00000, 9.740, 0.00000, 9.750, 0.00000
9.760, 0.00000, 9.770, 0.00000, 9.780, 0.00000, 9.790, 0.00000
9.800, 0.00000, 9.810, 0.00000, 9.820, 0.00000, 9.830, 0.00000
9.840, 0.00000, 9.850, 0.00000, 9.860, 0.00000, 9.870, 0.00000
9.880, 0.00000, 9.890, 0.00000, 9.900, 0.00000, 9.910, 0.00000
9.920, 0.00000, 9.930, 0.00000, 9.940, 0.00000, 9.950, 0.00000
9.960, 0.00000, 9.970, 0.00000, 9.980, 0.00000, 9.990, 0.00000
*AMPLITUDE, NAME=ROW13
0.000, 0.00000, 0.010, -227.14591, 0.020, -454.29181, 0.030, -681.43772
0.040, -908.58363, 0.050, -1135.72953, 0.060, -1078.94306, 0.070, -1022.15658
0.080, -965.37010, 0.090, -908.58363, 0.100, -851.79715, 0.110, -795.01067
0.120, -738.22420, 0.130, -681.43772, 0.140, -624.65124, 0.150, -567.86477
0.160, -511.07829, 0.170, -454.29181, 0.180, -397.50534, 0.190, -340.71886
0.200, -283.93238, 0.210, -227.14591, 0.220, -170.35943, 0.230, -113.57295
0.240, -56.78648, 0.250, 0.00000, 0.260, 0.00000, 0.270, 0.00000
0.280, 0.00000, 0.290, 0.00000, 0.300, 0.00000, 0.310, 0.00000
0.320, 0.00000, 0.330, 0.00000, 0.340, 0.00000, 0.350, 0.00000
0.360, 0.00000, 0.370, 0.00000, 0.380, 0.00000, 0.390, 0.00000
0.400, 0.00000, 0.410, 0.00000, 0.420, 0.00000, 0.430, 0.00000
0.440, 0.00000, 0.450, 0.00000, 0.460, 0.00000, 0.470, 0.00000
0.480, 0.00000, 0.490, 0.00000, 0.500, 0.00000, 0.510, 0.00000
0.520, 0.00000, 0.530, 0.00000, 0.540, 0.00000, 0.550, 0.00000
0.560, 0.00000, 0.570, 0.00000, 0.580, 0.00000, 0.590, 0.00000
0.600, 0.00000, 0.610, 0.00000, 0.620, 0.00000, 0.630, 0.00000
0.640, 0.00000, 0.650, 0.00000, 0.660, 0.00000, 0.670, 0.00000
0.680, 0.00000, 0.690, 0.00000, 0.700, 0.00000, 0.710, 0.00000
0.720, 0.00000, 0.730, 0.00000, 0.740, 0.00000, 0.750, 0.00000
0.760, 0.00000, 0.770, 0.00000, 0.780, 0.00000, 0.790, 0.00000
0.800, 0.00000, 0.810, 0.00000, 0.820, 0.00000, 0.830, 0.00000
0.840, 0.00000, 0.850, 0.00000, 0.860, 0.00000, 0.870, 0.00000
0.880, 0.00000, 0.890, 0.00000, 0.900, 0.00000, 0.910, 0.00000
0.920, 0.00000, 0.930, 0.00000, 0.940, 0.00000, 0.950, 0.00000
0.960, 0.00000, 0.970, 0.00000, 0.980, 0.00000, 0.990, 0.00000
1.000, 0.00000, 1.010, 0.00000, 1.020, 0.00000, 1.030, 0.00000
1.040, 0.00000, 1.050, 0.00000, 1.060, 0.00000, 1.070, 0.00000
1.080, 0.00000, 1.090, 0.00000, 1.100, 0.00000, 1.110, 0.00000
1.120, 0.00000, 1.130, 0.00000, 1.140, 0.00000, 1.150, 0.00000
1.160, 0.00000, 1.170, 0.00000, 1.180, 0.00000, 1.190, 0.00000
1.200, 0.00000, 1.210, 0.00000, 1.220, 0.00000, 1.230, 0.00000
1.240, 0.00000, 1.250, 0.00000, 1.260, 0.00000, 1.270, 0.00000
1.280, 0.00000, 1.290, 0.00000, 1.300, 0.00000, 1.310, 0.00000
1.320, 0.00000, 1.330, 0.00000, 1.340, 0.00000, 1.350, 0.00000
1.360, 0.00000, 1.370, 0.00000, 1.380, 0.00000, 1.390, 0.00000
1.400, 0.00000, 1.410, 0.00000, 1.420, 0.00000, 1.430, 0.00000
1.440, 0.00000, 1.450, 0.00000, 1.460, 0.00000, 1.470, 0.00000
1.480, 0.00000, 1.490, 0.00000, 1.500, 0.00000, 1.510, 0.00000
1.520, 0.00000, 1.530, 0.00000, 1.540, 0.00000, 1.550, 0.00000
1.560, 0.00000, 1.570, 0.00000, 1.580, 0.00000, 1.590, 0.00000
1.600, 0.00000, 1.610, 0.00000, 1.620, 0.00000, 1.630, 0.00000
1.640, 0.00000, 1.650, 0.00000, 1.660, 0.00000, 1.670, 0.00000
1.680, 0.00000, 1.690, 0.00000, 1.700, 0.00000, 1.710, 0.00000
1.720, 0.00000, 1.730, 0.00000, 1.740, 0.00000, 1.750, 0.00000
1.760, 0.00000, 1.770, 0.00000, 1.780, 0.00000, 1.790, 0.00000
1.800, 0.00000, 1.810, 0.00000, 1.820, 0.00000, 1.830, 0.00000
1.840, 0.00000, 1.850, 0.00000, 1.860, 0.00000, 1.870, 0.00000
1.880, 0.00000, 1.890, 0.00000, 1.900, 0.00000, 1.910, 0.00000
1.920, 0.00000, 1.930, 0.00000, 1.940, 0.00000, 1.950, 0.00000
1.960, 0.00000, 1.970, 0.00000, 1.980, 0.00000, 1.990, 0.00000
2.000, 0.00000, 2.010, -487.69325, 2.020, -975.38650, 2.030, -1463.07975
2.040, -1950.77300, 2.050, -2438.46625, 2.060, -2316.54294, 2.070, -2194.61963
2.080, -2072.69632, 2.090, -1950.77300, 2.100, -1828.84969, 2.110, -1706.92638
2.120, -1585.00307, 2.130, -1463.07975, 2.140, -1341.15644, 2.150, -1219.23313
2.160, -1097.30981, 2.170, -975.38650, 2.180, -853.46319, 2.190, -731.53988
2.200, -609.61656, 2.210, -487.69325, 2.220, -365.76994, 2.230, -243.84663
2.240, -121.92331, 2.250, 0.00000, 2.260, 0.00000, 2.270, 0.00000
2.280, 0.00000, 2.290, 0.00000, 2.300, 0.00000, 2.310, 0.00000
2.320, 0.00000, 2.330, 0.00000, 2.340, 0.00000, 2.350, 0.00000
2.360, 0.00000, 2.370, 0.00000, 2.380, 0.00000, 2.390, 0.00000
2.400, 0.00000, 2.410, 0.00000, 2.420, 0.00000, 2.430, 0.00000
2.440, 0.00000, 2.450, 0.00000, 2.460, 0.00000, 2.470, 0.00000
2.480, 0.00000, 2.490, 0.00000, 2.500, 0.00000, 2.510, 0.00000
2.520, 0.00000, 2.530, 0.00000, 2.540, 0.00000, 2.550, 0.00000
2.560, 0.00000, 2.570, 0.00000, 2.580, 0.00000, 2.590, 0.00000
2.600, 0.00000, 2.610, 0.00000, 2.620, 0.00000, 2.630, 0.00000
2.640, 0.00000, 2.650, 0.00000, 2.660, 0.00000, 2.670, 0.00000
2.680, 0.00000, 2.690, 0.00000, 2.700, 0.00000, 2.710, 0.00000
2.720, 0.00000, 2.730, 0.00000, 2.740, 0.00000, 2.750, 0.00000
2.760, 0.00000, 2.770, 0.00000, 2.780, 0.00000, 2.790, 0.00000
2.800, 0.00000, 2.810, 0.00000, 2.820, 0.00000, 2.830, 0.00000
2.840, 0.00000, 2.850, 0.00000, 2.860, 0.00000, 2.870, 0.00000
2.880, 0.00000, 2.890, 0.00000, 2.900, 0.00000, 2.910, 0.00000
2.920, 0.00000, 2.930, 0.00000, 2.940, 0.00000, 2.950, 0.00000
2.960, 0.00000, 2.970, 0.00000, 2.980, 0.00000, 2.990, 0.00000
3.000, 0.00000, 3.010, 0.00000, 3.020, 0.00000, 3.030, 0.00000
3.040, 0.00000, 3.050, 0.00000, 3.060, 0.00000, 3.070, 0.00000
3.080, 0.00000, 3.090, 0.00000, 3.100, 0.00000, 3.110, 0.00000
3.120, 0.00000, 3.130, 0.00000, 3.140, 0.00000, 3.150, 0.00000
3.160, 0.00000, 3.170, 0.00000, 3.180, 0.00000, 3.190, 0.00000
3.200, 0.00000, 3.210, 0.00000, 3.220, 0.00000, 3.230, 0.00000
3.240, 0.00000, 3.250, 0.00000, 3.260, 0.00000, 3.270, 0.00000
3.280, 0.00000, 3.290, 0.00000, 3.300, 0.00000, 3.310, 0.00000
3.320, 0.00000, 3.330, 0.00000, 3.340, 0.00000, 3.350, 0.00000
3.360, 0.00000, 3.370, 0.00000, 3.380, 0.00000, 3.390, 0.00000
3.400, 0.00000, 3.410, 0.00000, 3.420, 0.00000, 3.430, 0.00000
3.440, 0.00000, 3.450, 0.00000, 3.460, 0.00000, 3.470, 0.00000
3.480, 0.00000, 3.490, 0.00000, 3.500, 0.00000, 3.510, 0.00000
3.520, 0.00000, 3.530, 0.00000, 3.540, 0.00000, 3.550, 0.00000
3.560, 0.00000, 3.570, 0.00000, 3.580, 0.00000, 3.590, 0.00000
3.600, 0.00000, 3.610, 0.00000, 3.620, 0.00000, 3.630, 0.00000
3.640, 0.00000, 3.650, 0.00000, 3.660, 0.00000, 3.670, 0.00000
3.680, 0.00000, 3.690, 0.00000, 3.700, 0.00000, 3.710, 0.00000
3.720, 0.00000, 3.730, 0.00000, 3.740, 0.00000, 3.750, 0.00000
3.760, 0.00000, 3.770, 0.00000, 3.780, 0.00000, 3.790, 0.00000
3.800, 0.00000, 3.810, 0.00000, 3.820, 0.00000, 3.830, 0.00000
3.840, 0.00000, 3.850, 0.00000, 3.860, 0.00000, 3.870, 0.00000
3.880, 0.00000, 3.890, 0.00000, 3.900, 0.00000, 3.910, 0.00000
3.920, 0.00000, 3.930, 0.00000, 3.940, 0.00000, 3.950, 0.00000
3.960, 0.00000, 3.970, 0.00000, 3.980, 0.00000, 3.990, 0.00000
4.000, 0.00000, 4.010, -653.84332, 4.020, -1307.68664, 4.030, -1961.52995
4.040, -2615.37327, 4.050, -3269.21659, 4.060, -3105.75576, 4.070, -2942.29493
4.080, -2778.83410, 4.090, -2615.37327, 4.100, -2451.91244, 4.110, -2288.45161
4.120, -2124.99078, 4.130, -1961.52995, 4.140, -1798.06912, 4.150, -1634.60829
4.160, -1471.14746, 4.170, -1307.68664, 4.180, -1144.22581, 4.190, -980.76498
4.200, -817.30415, 4.210, -653.84332, 4.220, -490.38249, 4.230, -326.92166
4.240, -163.46083, 4.250, 0.00000, 4.260, 0.00000, 4.270, 0.00000
4.280, 0.00000, 4.290, 0.00000, 4.300, 0.00000, 4.310, 0.00000
4.320, 0.00000, 4.330, 0.00000, 4.340, 0.00000, 4.350, 0.00000
4.360, 0.00000, 4.370, 0.00000, 4.380, 0.00000, 4.390, 0.00000
4.400, 0.00000, 4.410, 0.00000, 4.420, 0.00000, 4.430, 0.00000
4.440, 0.00000, 4.450, 0.00000, 4.460, 0.00000, 4.470, 0.00000
4.480, 0.00000, 4.490, 0.00000, 4.500, 0.00000, 4.510, 0.00000
4.520, 0.00000, 4.530, 0.00000, 4.540, 0.00000, 4.550, 0.00000
4.560, 0.00000, 4.570, 0.00000, 4.580, 0.00000, 4.590, 0.00000
4.600, 0.00000, 4.610, 0.00000, 4.620, 0.00000, 4.630, 0.00000
4.640, 0.00000, 4.650, 0.00000, 4.660, 0.00000, 4.670, 0.00000
4.680, 0.00000, 4.690, 0.00000, 4.700, 0.00000, 4.710, 0.00000
4.720, 0.00000, 4.730, 0.00000, 4.740, 0.00000, 4.750, 0.00000
4.760, 0.00000, 4.770, 0.00000, 4.780, 0.00000, 4.790, 0.00000
4.800, 0.00000, 4.810, 0.00000, 4.820, 0.00000, 4.830, 0.00000
4.840, 0.00000, 4.850, 0.00000, 4.860, 0.00000, 4.870, 0.00000
4.880, 0.00000, 4.890, 0.00000, 4.900, 0.00000, 4.910, 0.00000
4.920, 0.00000, 4.930, 0.00000, 4.940, 0.00000, 4.950, 0.00000
4.960, 0.00000, 4.970, 0.00000, 4.980, 0.00000, 4.990, 0.00000
5.000, 0.00000, 5.010, 0.00000, 5.020, 0.00000, 5.030, 0.00000
5.040, 0.00000, 5.050, 0.00000, 5.060, 0.00000, 5.070, 0.00000
5.080, 0.00000, 5.090, 0.00000, 5.100, 0.00000, 5.110, 0.00000
5.120, 0.00000, 5.130, 0.00000, 5.140, 0.00000, 5.150, 0.00000
5.160, 0.00000, 5.170, 0.00000, 5.180, 0.00000, 5.190, 0.00000
5.200, 0.00000, 5.210, 0.00000, 5.220, 0.00000, 5.230, 0.00000
5.240, 0.00000, 5.250, 0.00000, 5.260, 0.00000, 5.270, 0.00000
5.280, 0.00000, 5.290, 0.00000, 5.300, 0.00000, 5.310, 0.00000
5.320, 0.00000, 5.330, 0.00000, 5.340, 0.00000, 5.350, 0.00000
5.360, 0.00000, 5.370, 0.00000, 5.380, 0.00000, 5.390, 0.00000
5.400, 0.00000, 5.410, 0.00000, 5.420, 0.00000, 5.430, 0.00000
5.440, 0.00000, 5.450, 0.00000, 5.460, 0.00000, 5.470, 0.00000
5.480, 0.00000, 5.490, 0.00000, 5.500, 0.00000, 5.510, 0.00000
5.520, 0.00000, 5.530, 0.00000, 5.540, 0.00000, 5.550, 0.00000
5.560, 0.00000, 5.570, 0.00000, 5.580, 0.00000, 5.590, 0.00000
5.600, 0.00000, 5.610, 0.00000, 5.620, 0.00000, 5.630, 0.00000
5.640, 0.00000, 5.650, 0.00000, 5.660, 0.00000, 5.670, 0.00000
5.680, 0.00000, 5.690, 0.00000, 5.700, 0.00000, 5.710, 0.00000
5.720, 0.00000, 5.730, 0.00000, 5.740, 0.00000, 5.750, 0.00000
5.760, 0.00000, 5.770, 0.00000, 5.780, 0.00000, 5.790, 0.00000
5.800, 0.00000, 5.810, 0.00000, 5.820, 0.00000, 5.830, 0.00000
5.840, 0.00000, 5.850, 0.00000, 5.860, 0.00000, 5.870, 0.00000
5.880, 0.00000, 5.890, 0.00000, 5.900, 0.00000, 5.910, 0.00000
5.920, 0.00000, 5.930, 0.00000, 5.940, 0.00000, 5.950, 0.00000
5.960, 0.00000, 5.970, 0.00000, 5.980, 0.00000, 5.990, 0.00000
6.000, 0.00000, 6.010, -777.90004, 6.020, -1555.80008, 6.030, -2333.70012
6.040, -3111.60016, 6.050, -3889.50020, 6.060, -3695.02519, 6.070, -3500.55018
6.080, -3306.07517, 6.090, -3111.60016, 6.100, -2917.12515, 6.110, -2722.65014
6.120, -2528.17513, 6.130, -2333.70012, 6.140, -2139.22511, 6.150, -1944.75010
6.160, -1750.27509, 6.170, -1555.80008, 6.180, -1361.32507, 6.190, -1166.85006
6.200, -972.37505, 6.210, -777.90004, 6.220, -583.42503, 6.230, -388.95002
6.240, -194.47501, 6.250, 0.00000, 6.260, 0.00000, 6.270, 0.00000
6.280, 0.00000, 6.290, 0.00000, 6.300, 0.00000, 6.310, 0.00000
6.320, 0.00000, 6.330, 0.00000, 6.340, 0.00000, 6.350, 0.00000
6.360, 0.00000, 6.370, 0.00000, 6.380, 0.00000, 6.390, 0.00000
6.400, 0.00000, 6.410, 0.00000, 6.420, 0.00000, 6.430, 0.00000
6.440, 0.00000, 6.450, 0.00000, 6.460, 0.00000, 6.470, 0.00000
6.480, 0.00000, 6.490, 0.00000, 6.500, 0.00000, 6.510, 0.00000
6.520, 0.00000, 6.530, 0.00000, 6.540, 0.00000, 6.550, 0.00000
6.560, 0.00000, 6.570, 0.00000, 6.580, 0.00000, 6.590, 0.00000
6.600, 0.00000, 6.610, 0.00000, 6.620, 0.00000, 6.630, 0.00000
6.640, 0.00000, 6.650, 0.00000, 6.660, 0.00000, 6.670, 0.00000
6.680, 0.00000, 6.690, 0.00000, 6.700, 0.00000, 6.710, 0.00000
6.720, 0.00000, 6.730, 0.00000, 6.740, 0.00000, 6.750, 0.00000
6.760, 0.00000, 6.770, 0.00000, 6.780, 0.00000, 6.790, 0.00000
6.800, 0.00000, 6.810, 0.00000, 6.820, 0.00000, 6.830, 0.00000
6.840, 0.00000, 6.850, 0.00000, 6.860, 0.00000, 6.870, 0.00000
6.880, 0.00000, 6.890, 0.00000, 6.900, 0.00000, 6.910, 0.00000
6.920, 0.00000, 6.930, 0.00000, 6.940, 0.00000, 6.950, 0.00000
6.960, 0.00000, 6.970, 0.00000, 6.980, 0.00000, 6.990, 0.00000
7.000, 0.00000, 7.010, 0.00000, 7.020, 0.00000, 7.030, 0.00000
7.040, 0.00000, 7.050, 0.00000, 7.060, 0.00000, 7.070, 0.00000
7.080, 0.00000, 7.090, 0.00000, 7.100, 0.00000, 7.110, 0.00000
7.120, 0.00000, 7.130, 0.00000, 7.140, 0.00000, 7.150, 0.00000
7.160, 0.00000, 7.170, 0.00000, 7.180, 0.00000, 7.190, 0.00000
7.200, 0.00000, 7.210, 0.00000, 7.220, 0.00000, 7.230, 0.00000
7.240, 0.00000, 7.250, 0.00000, 7.260, 0.00000, 7.270, 0.00000
7.280, 0.00000, 7.290, 0.00000, 7.300, 0.00000, 7.310, 0.00000
7.320, 0.00000, 7.330, 0.00000, 7.340, 0.00000, 7.350, 0.00000
7.360, 0.00000, 7.370, 0.00000, 7.380, 0.00000, 7.390, 0.00000
7.400, 0.00000, 7.410, 0.00000, 7.420, 0.00000, 7.430, 0.00000
7.440, 0.00000, 7.450, 0.00000, 7.460, 0.00000, 7.470, 0.00000
7.480, 0.00000, 7.490, 0.00000, 7.500, 0.00000, 7.510, 0.00000
7.520, 0.00000, 7.530, 0.00000, 7.540, 0.00000, 7.550, 0.00000
7.560, 0.00000, 7.570, 0.00000, 7.580, 0.00000, 7.590, 0.00000
7.600, 0.00000, 7.610, 0.00000, 7.620, 0.00000, 7.630, 0.00000
7.640, 0.00000, 7.650, 0.00000, 7.660, 0.00000, 7.670, 0.00000
7.680, 0.00000, 7.690, 0.00000, 7.700, 0.00000, 7.710, 0.00000
7.720, 0.00000, 7.730, 0.00000, 7.740, 0.00000, 7.750, 0.00000
7.760, 0.00000, 7.770, 0.00000, 7.780, 0.00000, 7.790, 0.00000
7.800, 0.00000, 7.810, 0.00000, 7.820, 0.00000, 7.830, 0.00000
7.840, 0.00000, 7.850, 0.00000, 7.860, 0.00000, 7.870, 0.00000
7.880, 0.00000, 7.890, 0.00000, 7.900, 0.00000, 7.910, 0.00000
7.920, 0.00000, 7.930, 0.00000, 7.940, 0.00000, 7.950, 0.00000
7.960, 0.00000, 7.970, 0.00000, 7.980, 0.00000, 7.990, 0.00000
8.000, 0.00000, 8.010, -877.70747, 8.020, -1755.41494, 8.030, -2633.12242
8.040, -3510.82989, 8.050, -4388.53736, 8.060, -4169.11049, 8.070, -3949.68363
8.080, -3730.25676, 8.090, -3510.82989, 8.100, -3291.40302, 8.110, -3071.97615
8.120, -2852.54929, 8.130, -2633.12242, 8.140, -2413.69555, 8.150, -2194.26868
8.160, -1974.84181, 8.170, -1755.41494, 8.180, -1535.98808, 8.190, -1316.56121
8.200, -1097.13434, 8.210, -877.70747, 8.220, -658.28060, 8.230, -438.85374
8.240, -219.42687, 8.250, 0.00000, 8.260, 0.00000, 8.270, 0.00000
8.280, 0.00000, 8.290, 0.00000, 8.300, 0.00000, 8.310, 0.00000
8.320, 0.00000, 8.330, 0.00000, 8.340, 0.00000, 8.350, 0.00000
8.360, 0.00000, 8.370, 0.00000, 8.380, 0.00000, 8.390, 0.00000
8.400, 0.00000, 8.410, 0.00000, 8.420, 0.00000, 8.430, 0.00000
8.440, 0.00000, 8.450, 0.00000, 8.460, 0.00000, 8.470, 0.00000
8.480, 0.00000, 8.490, 0.00000, 8.500, 0.00000, 8.510, 0.00000
8.520, 0.00000, 8.530, 0.00000, 8.540, 0.00000, 8.550, 0.00000
8.560, 0.00000, 8.570, 0.00000, 8.580, 0.00000, 8.590, 0.00000
8.600, 0.00000, 8.610, 0.00000, 8.620, 0.00000, 8.630, 0.00000
8.640, 0.00000, 8.650, 0.00000, 8.660, 0.00000, 8.670, 0.00000
8.680, 0.00000, 8.690, 0.00000, 8.700, 0.00000, 8.710, 0.00000
8.720, 0.00000, 8.730, 0.00000, 8.740, 0.00000, 8.750, 0.00000
8.760, 0.00000, 8.770, 0.00000, 8.780, 0.00000, 8.790, 0.00000
8.800, 0.00000, 8.810, 0.00000, 8.820, 0.00000, 8.830, 0.00000
8.840, 0.00000, 8.850, 0.00000, 8.860, 0.00000, 8.870, 0.00000
8.880, 0.00000, 8.890, 0.00000, 8.900, 0.00000, 8.910, 0.00000
8.920, 0.00000, 8.930, 0.00000, 8.940, 0.00000, 8.950, 0.00000
8.960, 0.00000, 8.970, 0.00000, 8.980, 0.00000, 8.990, 0.00000
9.000, 0.00000, 9.010, 0.00000, 9.020, 0.00000, 9.030, 0.00000
9.040, 0.00000, 9.050, 0.00000, 9.060, 0.00000, 9.070, 0.00000
9.080, 0.00000, 9.090, 0.00000, 9.100, 0.00000, 9.110, 0.00000
9.120, 0.00000, 9.130, 0.00000, 9.140, 0.00000, 9.150, 0.00000
9.160, 0.00000, 9.170, 0.00000, 9.180, 0.00000, 9.190, 0.00000
9.200, 0.00000, 9.210, 0.00000, 9.220, 0.00000, 9.230, 0.00000
9.240, 0.00000, 9.250, 0.00000, 9.260, 0.00000, 9.270, 0.00000
9.280, 0.00000, 9.290, 0.00000, 9.300, 0.00000, 9.310, 0.00000
9.320, 0.00000, 9.330, 0.00000, 9.340, 0.00000, 9.350, 0.00000
9.360, 0.00000, 9.370, 0.00000, 9.380, 0.00000, 9.390, 0.00000
9.400, 0.00000, 9.410, 0.00000, 9.420, 0.00000, 9.430, 0.00000
9.440, 0.00000, 9.450, 0.00000, 9.460, 0.00000, 9.470, 0.00000
9.480, 0.00000, 9.490, 0.00000, 9.500, 0.00000, 9.510, 0.00000
9.520, 0.00000, 9.530, 0.00000, 9.540, 0.00000, 9.550, 0.00000
9.560, 0.00000, 9.570, 0.00000, 9.580, 0.00000, 9.590, 0.00000
9.600, 0.00000, 9.610, 0.00000, 9.620, 0.00000, 9.630, 0.00000
9.640, 0.00000, 9.650, 0.00000, 9.660, 0.00000, 9.670, 0.00000
9.680, 0.00000, 9.690, 0.00000, 9.700, 0.00000, 9.710, 0.00000
9.720, 0.00000, 9.730, 0.00000, 9.740, 0.00000, 9.750, 0.00000
9.760, 0.00000, 9.770, 0.00000, 9.780, 0.00000, 9.790, 0.00000
9.800, 0.00000, 9.810, 0.00000, 9.820, 0.00000, 9.830, 0.00000
9.840, 0.00000, 9.850, 0.00000, 9.860, 0.00000, 9.870, 0.00000
9.880, 0.00000, 9.890, 0.00000, 9.900, 0.00000, 9.910, 0.00000
9.920, 0.00000, 9.930, 0.00000, 9.940, 0.00000, 9.950, 0.00000
9.960, 0.00000, 9.970, 0.00000, 9.980, 0.00000, 9.990, 0.00000
*AMPLITUDE, NAME=ROW14
0.000, 0.00000, 0.010, 3688.14125, 0.020, 7376.28250, 0.030, 11064.42375
0.040, 14752.56501, 0.050, 18440.70626, 0.060, 17518.67094, 0.070, 16596.63563
0.080, 15674.60032, 0.090, 14752.56501, 0.100, 13830.52969, 0.110, 12908.49438
0.120, 11986.45907, 0.130, 11064.42375, 0.140, 10142.38844, 0.150, 9220.35313
0.160, 8298.31782, 0.170, 7376.28250, 0.180, 6454.24719, 0.190, 5532.21188
0.200, 4610.17656, 0.210, 3688.14125, 0.220, 2766.10594, 0.230, 1844.07063
0.240, 922.03531, 0.250, 0.00000, 0.260, 0.00000, 0.270, 0.00000
0.280, 0.00000, 0.290, 0.00000, 0.300, 0.00000, 0.310, 0.00000
0.320, 0.00000, 0.330, 0.00000, 0.340, 0.00000, 0.350, 0.00000
0.360, 0.00000, 0.370, 0.00000, 0.380, 0.00000, 0.390, 0.00000
0.400, 0.00000, 0.410, 0.00000, 0.420, 0.00000, 0.430, 0.00000
0.440, 0.00000, 0.450, 0.00000, 0.460, 0.00000, 0.470, 0.00000
0.480, 0.00000, 0.490, 0.00000, 0.500, 0.00000, 0.510, 0.00000
0.520, 0.00000, 0.530, 0.00000, 0.540, 0.00000, 0.550, 0.00000
0.560, 0.00000, 0.570, 0.00000, 0.580, 0.00000, 0.590, 0.00000
0.600, 0.00000, 0.610, 0.00000, 0.620, 0.00000, 0.630, 0.00000
0.640, 0.00000, 0.650, 0.00000, 0.660, 0.00000, 0.670, 0.00000
0.680, 0.00000, 0.690, 0.00000, 0.700, 0.00000, 0.710, 0.00000
0.720, 0.00000, 0.730, 0.00000, 0.740, 0.00000, 0.750, 0.00000
0.760, 0.00000, 0.770, 0.00000, 0.780, 0.00000, 0.790, 0.00000
0.800, 0.00000, 0.810, 0.00000, 0.820, 0.00000, 0.830, 0.00000
0.840, 0.00000, 0.850, 0.00000, 0.860, 0.00000, 0.870, 0.00000
0.880, 0.00000, 0.890, 0.00000, 0.900, 0.00000, 0.910, 0.00000
0.920, 0.00000, 0.930, 0.00000, 0.940, 0.00000, 0.950, 0.00000
0.960, 0.00000, 0.970, 0.00000, 0.980, 0.00000, 0.990, 0.00000
1.000, 0.00000, 1.010, 0.00000, 1.020, 0.00000, 1.030, 0.00000
1.040, 0.00000, 1.050, 0.00000, 1.060, 0.00000, 1.070, 0.00000
1.080, 0.00000, 1.090, 0.00000, 1.100, 0.00000, 1.110, 0.00000
1.120, 0.00000, 1.130, 0.00000, 1.140, 0.00000, 1.150, 0.00000
1.160, 0.00000, 1.170, 0.00000, 1.180, 0.00000, 1.190, 0.00000
1.200, 0.00000, 1.210, 0.00000, 1.220, 0.00000, 1.230, 0.00000
1.240, 0.00000, 1.250, 0.00000, 1.260, 0.00000, 1.270, 0.00000
1.280, 0.00000, 1.290, 0.00000, 1.300, 0.00000, 1.310, 0.00000
1.320, 0.00000, 1.330, 0.00000, 1.340, 0.00000, 1.350, 0.00000
1.360, 0.00000, 1.370, 0.00000, 1.380, 0.00000, 1.390, 0.00000
1.400, 0.00000, 1.410, 0.00000, 1.420, 0.00000, 1.430, 0.00000
1.440, 0.00000, 1.450, 0.00000, 1.460, 0.00000, 1.470, 0.00000
1.480, 0.00000, 1.490, 0.00000, 1.500, 0.00000, 1.510, 0.00000
1.520, 0.00000, 1.530, 0.00000, 1.540, 0.00000, 1.550, 0.00000
1.560, 0.00000, 1.570, 0.00000, 1.580, 0.00000, 1.590, 0.00000
1.600, 0.00000, 1.610, 0.00000, 1.620, 0.00000, 1.630, 0.00000
1.640, 0.00000, 1.650, 0.00000, 1.660, 0.00000, 1.670, 0.00000
1.680, 0.00000, 1.690, 0.00000, 1.700, 0.00000, 1.710, 0.00000
1.720, 0.00000, 1.730, 0.00000, 1.740, 0.00000, 1.750, 0.00000
1.760, 0.00000, 1.770, 0.00000, 1.780, 0.00000, 1.790, 0.00000
1.800, 0.00000, 1.810, 0.00000, 1.820, 0.00000, 1.830, 0.00000
1.840, 0.00000, 1.850, 0.00000, 1.860, 0.00000, 1.870, 0.00000
1.880, 0.00000, 1.890, 0.00000, 1.900, 0.00000, 1.910, 0.00000
1.920, 0.00000, 1.930, 0.00000, 1.940, 0.00000, 1.950, 0.00000
1.960, 0.00000, 1.970, 0.00000, 1.980, 0.00000, 1.990, 0.00000
2.000, 0.00000, 2.010, 3606.40498, 2.020, 7212.80995, 2.030, 10819.21493
2.040, 14425.61990, 2.050, 18032.02488, 2.060, 17130.42364, 2.070, 16228.82239
2.080, 15327.22115, 2.090, 14425.61990, 2.100, 13524.01866, 2.110, 12622.41742
2.120, 11720.81617, 2.130, 10819.21493, 2.140, 9917.61368, 2.150, 9016.01244
2.160, 8114.41120, 2.170, 7212.80995, 2.180, 6311.20871, 2.190, 5409.60746
2.200, 4508.00622, 2.210, 3606.40498, 2.220, 2704.80373, 2.230, 1803.20249
2.240, 901.60124, 2.250, 0.00000, 2.260, 0.00000, 2.270, 0.00000
2.280, 0.00000, 2.290, 0.00000, 2.300, 0.00000, 2.310, 0.00000
2.320, 0.00000, 2.330, 0.00000, 2.340, 0.00000, 2.350, 0.00000
2.360, 0.00000, 2.370, 0.00000, 2.380, 0.00000, 2.390, 0.00000
2.400, 0.00000, 2.410, 0.00000, 2.420, 0.00000, 2.430, 0.00000
2.440, 0.00000, 2.450, 0.00000, 2.460, 0.00000, 2.470, 0.00000
2.480, 0.00000, 2.490, 0.00000, 2.500, 0.00000, 2.510, 0.00000
2.520, 0.00000, 2.530, 0.00000, 2.540, 0.00000, 2.550, 0.00000
2.560, 0.00000, 2.570, 0.00000, 2.580, 0.00000, 2.590, 0.00000
2.600, 0.00000, 2.610, 0.00000, 2.620, 0.00000, 2.630, 0.00000
2.640, 0.00000, 2.650, 0.00000, 2.660, 0.00000, 2.670, 0.00000
2.680, 0.00000, 2.690, 0.00000, 2.700, 0.00000, 2.710, 0.00000
2.720, 0.00000, 2.730, 0.00000, 2.740, 0.00000, 2.750, 0.00000
2.760, 0.00000, 2.770, 0.00000, 2.780, 0.00000, 2.790, 0.00000
2.800, 0.00000, 2.810, 0.00000, 2.820, 0.00000, 2.830, 0.00000
2.840, 0.00000, 2.850, 0.00000, 2.860, 0.00000, 2.870, 0.00000
2.880, 0.00000, 2.890, 0.00000, 2.900, 0.00000, 2.910, 0.00000
2.920, 0.00000, 2.930, 0.00000, 2.940, 0.00000, 2.950, 0.00000
2.960, 0.00000, 2.970, 0.00000, 2.980, 0.00000, 2.990, 0.00000
3.000, 0.00000, 3.010, 0.00000, 3.020, 0.00000, 3.030, 0.00000
3.040, 0.00000, 3.050, 0.00000, 3.060, 0.00000, 3.070, 0.00000
3.080, 0.00000, 3.090, 0.00000, 3.100, 0.00000, 3.110, 0.00000
3.120, 0.00000, 3.130, 0.00000, 3.140, 0.00000, 3.150, 0.00000
3.160, 0.00000, 3.170, 0.00000, 3.180, 0.00000, 3.190, 0.00000
3.200, 0.00000, 3.210, 0.00000, 3.220, 0.00000, 3.230, 0.00000
3.240, 0.00000, 3.250, 0.00000, 3.260, 0.00000, 3.270, 0.00000
3.280, 0.00000, 3.290, 0.00000, 3.300, 0.00000, 3.310, 0.00000
3.320, 0.00000, 3.330, 0.00000, 3.340, 0.00000, 3.350, 0.00000
3.360, 0.00000, 3.370, 0.00000, 3.380, 0.00000, 3.390, 0.00000
3.400, 0.00000, 3.410, 0.00000, 3.420, 0.00000, 3.430, 0.00000
3.440, 0.00000, 3.450, 0.00000, 3.460, 0.00000, 3.470, 0.00000
3.480, 0.00000, 3.490, 0.00000, 3.500, 0.00000, 3.510, 0.00000
3.520, 0.00000, 3.530, 0.00000, 3.540, 0.00000, 3.550, 0.00000
3.560, 0.00000, 3.570, 0.00000, 3.580, 0.00000, 3.590, 0.00000
3.600, 0.00000, 3.610, 0.00000, 3.620, 0.00000, 3.630, 0.00000
3.640, 0.00000, 3.650, 0.00000, 3.660, 0.00000, 3.670, 0.00000
3.680, 0.00000, 3.690, 0.00000, 3.700, 0.00000, 3.710, 0.00000
3.720, 0.00000, 3.730, 0.00000, 3.740, 0.00000, 3.750, 0.00000
3.760, 0.00000, 3.770, 0.00000, 3.780, 0.00000, 3.790, 0.00000
3.800, 0.00000, 3.810, 0.00000, 3.820, 0.00000, 3.830, 0.00000
3.840, 0.00000, 3.850, 0.00000, 3.860, 0.00000, 3.870, 0.00000
3.880, 0.00000, 3.890, 0.00000, 3.900, 0.00000, 3.910, 0.00000
3.920, 0.00000, 3.930, 0.00000, 3.940, 0.00000, 3.950, 0.00000
3.960, 0.00000, 3.970, 0.00000, 3.980, 0.00000, 3.990, 0.00000
4.000, 0.00000, 4.010, 3549.55790, 4.020, 7099.11580, 4.030, 10648.67370
4.040, 14198.23160, 4.050, 17747.78950, 4.060, 16860.40003, 4.070, 15973.01055
4.080, 15085.62108, 4.090, 14198.23160, 4.100, 13310.84213, 4.110, 12423.45265
4.120, 11536.06318, 4.130, 10648.67370, 4.140, 9761.28423, 4.150, 8873.89475
4.160, 7986.50528, 4.170, 7099.11580, 4.180, 6211.72633, 4.190, 5324.33685
4.200, 4436.94738, 4.210, 3549.55790, 4.220, 2662.16843, 4.230, 1774.77895
4.240, 887.38948, 4.250, 0.00000, 4.260, 0.00000, 4.270, 0.00000
4.280, 0.00000, 4.290, 0.00000, 4.300, 0.00000, 4.310, 0.00000
4.320, 0.00000, 4.330, 0.00000, 4.340, 0.00000, 4.350, 0.00000
4.360, 0.00000, 4.370, 0.00000, 4.380, 0.00000, 4.390, 0.00000
4.400, 0.00000, 4.410, 0.00000, 4.420, 0.00000, 4.430, 0.00000
4.440, 0.00000, 4.450, 0.00000, 4.460, 0.00000, 4.470, 0.00000
4.480, 0.00000, 4.490, 0.00000, 4.500, 0.00000, 4.510, 0.00000
4.520, 0.00000, 4.530, 0.00000, 4.540, 0.00000, 4.550, 0.00000
4.560, 0.00000, 4.570, 0.00000, 4.580, 0.00000, 4.590, 0.00000
4.600, 0.00000, 4.610, 0.00000, 4.620, 0.00000, 4.630, 0.00000
4.640, 0.00000, 4.650, 0.00000, 4.660, 0.00000, 4.670, 0.00000
4.680, 0.00000, 4.690, 0.00000, 4.700, 0.00000, 4.710, 0.00000
4.720, 0.00000, 4.730, 0.00000, 4.740, 0.00000, 4.750, 0.00000
4.760, 0.00000, 4.770, 0.00000, 4.780, 0.00000, 4.790, 0.00000
4.800, 0.00000, 4.810, 0.00000, 4.820, 0.00000, 4.830, 0.00000
4.840, 0.00000, 4.850, 0.00000, 4.860, 0.00000, 4.870, 0.00000
4.880, 0.00000, 4.890, 0.00000, 4.900, 0.00000, 4.910, 0.00000
4.920, 0.00000, 4.930, 0.00000, 4.940, 0.00000, 4.950, 0.00000
4.960, 0.00000, 4.970, 0.00000, 4.980, 0.00000, 4.990, 0.00000
5.000, 0.00000, 5.010, 0.00000, 5.020, 0.00000, 5.030, 0.00000
5.040, 0.00000, 5.050, 0.00000, 5.060, 0.00000, 5.070, 0.00000
5.080, 0.00000, 5.090, 0.00000, 5.100, 0.00000, 5.110, 0.00000
5.120, 0.00000, 5.130, 0.00000, 5.140, 0.00000, 5.150, 0.00000
5.160, 0.00000, 5.170, 0.00000, 5.180, 0.00000, 5.190, 0.00000
5.200, 0.00000, 5.210, 0.00000, 5.220, 0.00000, 5.230, 0.00000
5.240, 0.00000, 5.250, 0.00000, 5.260, 0.00000, 5.270, 0.00000
5.280, 0.00000, 5.290, 0.00000, 5.300, 0.00000, 5.310, 0.00000
5.320, 0.00000, 5.330, 0.00000, 5.340, 0.00000, 5.350, 0.00000
5.360, 0.00000, 5.370, 0.00000, 5.380, 0.00000, 5.390, 0.00000
5.400, 0.00000, 5.410, 0.00000, 5.420, 0.00000, 5.430, 0.00000
5.440, 0.00000, 5.450, 0.00000, 5.460, 0.00000, 5.470, 0.00000
5.480, 0.00000, 5.490, 0.00000, 5.500, 0.00000, 5.510, 0.00000
5.520, 0.00000, 5.530, 0.00000, 5.540, 0.00000, 5.550, 0.00000
5.560, 0.00000, 5.570, 0.00000, 5.580, 0.00000, 5.590, 0.00000
5.600, 0.00000, 5.610, 0.00000, 5.620, 0.00000, 5.630, 0.00000
5.640, 0.00000, 5.650, 0.00000, 5.660, 0.00000, 5.670, 0.00000
5.680, 0.00000, 5.690, 0.00000, 5.700, 0.00000, 5.710, 0.00000
5.720, 0.00000, 5.730, 0.00000, 5.740, 0.00000, 5.750, 0.00000
5.760, 0.00000, 5.770, 0.00000, 5.780, 0.00000, 5.790, 0.00000
5.800, 0.00000, 5.810, 0.00000, 5.820, 0.00000, 5.830, 0.00000
5.840, 0.00000, 5.850, 0.00000, 5.860, 0.00000, 5.870, 0.00000
5.880, 0.00000, 5.890, 0.00000, 5.900, 0.00000, 5.910, 0.00000
5.920, 0.00000, 5.930, 0.00000, 5.940, 0.00000, 5.950, 0.00000
5.960, 0.00000, 5.970, 0.00000, 5.980, 0.00000, 5.990, 0.00000
6.000, 0.00000, 6.010, 3504.55825, 6.020, 7009.11650, 6.030, 10513.67475
6.040, 14018.23301, 6.050, 17522.79126, 6.060, 16646.65169, 6.070, 15770.51213
6.080, 14894.37257, 6.090, 14018.23301, 6.100, 13142.09344, 6.110, 12265.95388
6.120, 11389.81432, 6.130, 10513.67475, 6.140, 9637.53519, 6.150, 8761.39563
6.160, 7885.25607, 6.170, 7009.11650, 6.180, 6132.97694, 6.190, 5256.83738
6.200, 4380.69781, 6.210, 3504.55825, 6.220, 2628.41869, 6.230, 1752.27913
6.240, 876.13956, 6.250, 0.00000, 6.260, 0.00000, 6.270, 0.00000
6.280, 0.00000, 6.290, 0.00000, 6.300, 0.00000, 6.310, 0.00000
6.320, 0.00000, 6.330, 0.00000, 6.340, 0.00000, 6.350, 0.00000
6.360, 0.00000, 6.370, 0.00000, 6.380, 0.00000, 6.390, 0.00000
6.400, 0.00000, 6.410, 0.00000, 6.420, 0.00000, 6.430, 0.00000
6.440, 0.00000, 6.450, 0.00000, 6.460, 0.00000, 6.470, 0.00000
6.480, 0.00000, 6.490, 0.00000, 6.500, 0.00000, 6.510, 0.00000
6.520, 0.00000, 6.530, 0.00000, 6.540, 0.00000, 6.550, 0.00000
6.560, 0.00000, 6.570, 0.00000, 6.580, 0.00000, 6.590, 0.00000
6.600, 0.00000, 6.610, 0.00000, 6.620, 0.00000, 6.630, 0.00000
6.640, 0.00000, 6.650, 0.00000, 6.660, 0.00000, 6.670, 0.00000
6.680, 0.00000, 6.690, 0.00000, 6.700, 0.00000, 6.710, 0.00000
6.720, 0.00000, 6.730, 0.00000, 6.740, 0.00000, 6.750, 0.00000
6.760, 0.00000, 6.770, 0.00000, 6.780, 0.00000, 6.790, 0.00000
6.800, 0.00000, 6.810, 0.00000, 6.820, 0.00000, 6.830, 0.00000
6.840, 0.00000, 6.850, 0.00000, 6.860, 0.00000, 6.870, 0.00000
6.880, 0.00000, 6.890, 0.00000, 6.900, 0.00000, 6.910, 0.00000
6.920, 0.00000, 6.930, 0.00000, 6.940, 0.00000, 6.950, 0.00000
6.960, 0.00000, 6.970, 0.00000, 6.980, 0.00000, 6.990, 0.00000
7.000, 0.00000, 7.010, 0.00000, 7.020, 0.00000, 7.030, 0.00000
7.040, 0.00000, 7.050, 0.00000, 7.060, 0.00000, 7.070, 0.00000
7.080, 0.00000, 7.090, 0.00000, 7.100, 0.00000, 7.110, 0.00000
7.120, 0.00000, 7.130, 0.00000, 7.140, 0.00000, 7.150, 0.00000
7.160, 0.00000, 7.170, 0.00000, 7.180, 0.00000, 7.190, 0.00000
7.200, 0.00000, 7.210, 0.00000, 7.220, 0.00000, 7.230, 0.00000
7.240, 0.00000, 7.250, 0.00000, 7.260, 0.00000, 7.270, 0.00000
7.280, 0.00000, 7.290, 0.00000, 7.300, 0.00000, 7.310, 0.00000
7.320, 0.00000, 7.330, 0.00000, 7.340, 0.00000, 7.350, 0.00000
7.360, 0.00000, 7.370, 0.00000, 7.380, 0.00000, 7.390, 0.00000
7.400, 0.00000, 7.410, 0.00000, 7.420, 0.00000, 7.430, 0.00000
7.440, 0.00000, 7.450, 0.00000, 7.460, 0.00000, 7.470, 0.00000
7.480, 0.00000, 7.490, 0.00000, 7.500, 0.00000, 7.510, 0.00000
7.520, 0.00000, 7.530, 0.00000, 7.540, 0.00000, 7.550, 0.00000
7.560, 0.00000, 7.570, 0.00000, 7.580, 0.00000, 7.590, 0.00000
7.600, 0.00000, 7.610, 0.00000, 7.620, 0.00000, 7.630, 0.00000
7.640, 0.00000, 7.650, 0.00000, 7.660, 0.00000, 7.670, 0.00000
7.680, 0.00000, 7.690, 0.00000, 7.700, 0.00000, 7.710, 0.00000
7.720, 0.00000, 7.730, 0.00000, 7.740, 0.00000, 7.750, 0.00000
7.760, 0.00000, 7.770, 0.00000, 7.780, 0.00000, 7.790, 0.00000
7.800, 0.00000, 7.810, 0.00000, 7.820, 0.00000, 7.830, 0.00000
7.840, 0.00000, 7.850, 0.00000, 7.860, 0.00000, 7.870, 0.00000
7.880, 0.00000, 7.890, 0.00000, 7.900, 0.00000, 7.910, 0.00000
7.920, 0.00000, 7.930, 0.00000, 7.940, 0.00000, 7.950, 0.00000
7.960, 0.00000, 7.970, 0.00000, 7.980, 0.00000, 7.990, 0.00000
8.000, 0.00000, 8.010, 3466.48638, 8.020, 6932.97277, 8.030, 10399.45915
8.040, 13865.94553, 8.050, 17332.43192, 8.060, 16465.81032, 8.070, 15599.18873
8.080, 14732.56713, 8.090, 13865.94553, 8.100, 12999.32394, 8.110, 12132.70234
8.120, 11266.08075, 8.130, 10399.45915, 8.140, 9532.83756, 8.150, 8666.21596
8.160, 7799.59436, 8.170, 6932.97277, 8.180, 6066.35117, 8.190, 5199.72958
8.200, 4333.10798, 8.210, 3466.48638, 8.220, 2599.86479, 8.230, 1733.24319
8.240, 866.62160, 8.250, 0.00000, 8.260, 0.00000, 8.270, 0.00000
8.280, 0.00000, 8.290, 0.00000, 8.300, 0.00000, 8.310, 0.00000
8.320, 0.00000, 8.330, 0.00000, 8.340, 0.00000, 8.350, 0.00000
8.360, 0.00000, 8.370, 0.00000, 8.380, 0.00000, 8.390, 0.00000
8.400, 0.00000, 8.410, 0.00000, 8.420, 0.00000, 8.430, 0.00000
8.440, 0.00000, 8.450, 0.00000, 8.460, 0.00000, 8.470, 0.00000
8.480, 0.00000, 8.490, 0.00000, 8.500, 0.00000, 8.510, 0.00000
8.520, 0.00000, 8.530, 0.00000, 8.540, 0.00000, 8.550, 0.00000
8.560, 0.00000, 8.570, 0.00000, 8.580, 0.00000, 8.590, 0.00000
8.600, 0.00000, 8.610, 0.00000, 8.620, 0.00000, 8.630, 0.00000
8.640, 0.00000, 8.650, 0.00000, 8.660, 0.00000, 8.670, 0.00000
8.680, 0.00000, 8.690, 0.00000, 8.700, 0.00000, 8.710, 0.00000
8.720, 0.00000, 8.730, 0.00000, 8.740, 0.00000, 8.750, 0.00000
8.760, 0.00000, 8.770, 0.00000, 8.780, 0.00000, 8.790, 0.00000
8.800, 0.00000, 8.810, 0.00000, 8.820, 0.00000, 8.830, 0.00000
8.840, 0.00000, 8.850, 0.00000, 8.860, 0.00000, 8.870, 0.00000
8.880, 0.00000, 8.890, 0.00000, 8.900, 0.00000, 8.910, 0.00000
8.920, 0.00000, 8.930, 0.00000, 8.940, 0.00000, 8.950, 0.00000
8.960, 0.00000, 8.970, 0.00000, 8.980, 0.00000, 8.990, 0.00000
9.000, 0.00000, 9.010, 0.00000, 9.020, 0.00000, 9.030, 0.00000
9.040, 0.00000, 9.050, 0.00000, 9.060, 0.00000, 9.070, 0.00000
9.080, 0.00000, 9.090, 0.00000, 9.100, 0.00000, 9.110, 0.00000
9.120, 0.00000, 9.130, 0.00000, 9.140, 0.00000, 9.150, 0.00000
9.160, 0.00000, 9.170, 0.00000, 9.180, 0.00000, 9.190, 0.00000
9.200, 0.00000, 9.210, 0.00000, 9.220, 0.00000, 9.230, 0.00000
9.240, 0.00000, 9.250, 0.00000, 9.260, 0.00000, 9.270, 0.00000
9.280, 0.00000, 9.290, 0.00000, 9.300, 0.00000, 9.310, 0.00000
9.320, 0.00000, 9.330, 0.00000, 9.340, 0.00000, 9.350, 0.00000
9.360, 0.00000, 9.370, 0.00000, 9.380, 0.00000, 9.390, 0.00000
9.400, 0.00000, 9.410, 0.00000, 9.420, 0.00000, 9.430, 0.00000
9.440, 0.00000, 9.450, 0.00000, 9.460, 0.00000, 9.470, 0.00000
9.480, 0.00000, 9.490, 0.00000, 9.500, 0.00000, 9.510, 0.00000
9.520, 0.00000, 9.530, 0.00000, 9.540, 0.00000, 9.550, 0.00000
9.560, 0.00000, 9.570, 0.00000, 9.580, 0.00000, 9.590, 0.00000
9.600, 0.00000, 9.610, 0.00000, 9.620, 0.00000, 9.630, 0.00000
9.640, 0.00000, 9.650, 0.00000, 9.660, 0.00000, 9.670, 0.00000
9.680, 0.00000, 9.690, 0.00000, 9.700, 0.00000, 9.710, 0.00000
9.720, 0.00000, 9.730, 0.00000, 9.740, 0.00000, 9.750, 0.00000
9.760, 0.00000, 9.770, 0.00000, 9.780, 0.00000, 9.790, 0.00000
9.800, 0.00000, 9.810, 0.00000, 9.820, 0.00000, 9.830, 0.00000
9.840, 0.00000, 9.850, 0.00000, 9.860, 0.00000, 9.870, 0.00000
9.880, 0.00000, 9.890, 0.00000, 9.900, 0.00000, 9.910, 0.00000
9.920, 0.00000, 9.930, 0.00000, 9.940, 0.00000, 9.950, 0.00000
9.960, 0.00000, 9.970, 0.00000, 9.980, 0.00000, 9.990, 0.00000
*AMPLITUDE, NAME=ROW15
0.000, 0.00000, 0.010, 2435.52535, 0.020, 4871.05071, 0.030, 7306.57606
0.040, 9742.10142, 0.050, 12177.62677, 0.060, 11568.74544, 0.070, 10959.86410
0.080, 10350.98276, 0.090, 9742.10142, 0.100, 9133.22008, 0.110, 8524.33874
0.120, 7915.45740, 0.130, 7306.57606, 0.140, 6697.69473, 0.150, 6088.81339
0.160, 5479.93205, 0.170, 4871.05071, 0.180, 4262.16937, 0.190, 3653.28803
0.200, 3044.40669, 0.210, 2435.52535, 0.220, 1826.64402, 0.230, 1217.76268
0.240, 608.88134, 0.250, 0.00000, 0.260, 0.00000, 0.270, 0.00000
0.280, 0.00000, 0.290, 0.00000, 0.300, 0.00000, 0.310, 0.00000
0.320, 0.00000, 0.330, 0.00000, 0.340, 0.00000, 0.350, 0.00000
0.360, 0.00000, 0.370, 0.00000, 0.380, 0.00000, 0.390, 0.00000
0.400, 0.00000, 0.410, 0.00000, 0.420, 0.00000, 0.430, 0.00000
0.440, 0.00000, 0.450, 0.00000, 0.460, 0.00000, 0.470, 0.00000
0.480, 0.00000, 0.490, 0.00000, 0.500, 0.00000, 0.510, 0.00000
0.520, 0.00000, 0.530, 0.00000, 0.540, 0.00000, 0.550, 0.00000
0.560, 0.00000, 0.570, 0.00000, 0.580, 0.00000, 0.590, 0.00000
0.600, 0.00000, 0.610, 0.00000, 0.620, 0.00000, 0.630, 0.00000
0.640, 0.00000, 0.650, 0.00000, 0.660, 0.00000, 0.670, 0.00000
0.680, 0.00000, 0.690, 0.00000, 0.700, 0.00000, 0.710, 0.00000
0.720, 0.00000, 0.730, 0.00000, 0.740, 0.00000, 0.750, 0.00000
0.760, 0.00000, 0.770, 0.00000, 0.780, 0.00000, 0.790, 0.00000
0.800, 0.00000, 0.810, 0.00000, 0.820, 0.00000, 0.830, 0.00000
0.840, 0.00000, 0.850, 0.00000, 0.860, 0.00000, 0.870, 0.00000
0.880, 0.00000, 0.890, 0.00000, 0.900, 0.00000, 0.910, 0.00000
0.920, 0.00000, 0.930, 0.00000, 0.940, 0.00000, 0.950, 0.00000
0.960, 0.00000, 0.970, 0.00000, 0.980, 0.00000, 0.990, 0.00000
1.000, 0.00000, 1.010, 0.00000, 1.020, 0.00000, 1.030, 0.00000
1.040, 0.00000, 1.050, 0.00000, 1.060, 0.00000, 1.070, 0.00000
1.080, 0.00000, 1.090, 0.00000, 1.100, 0.00000, 1.110, 0.00000
1.120, 0.00000, 1.130, 0.00000, 1.140, 0.00000, 1.150, 0.00000
1.160, 0.00000, 1.170, 0.00000, 1.180, 0.00000, 1.190, 0.00000
1.200, 0.00000, 1.210, 0.00000, 1.220, 0.00000, 1.230, 0.00000
1.240, 0.00000, 1.250, 0.00000, 1.260, 0.00000, 1.270, 0.00000
1.280, 0.00000, 1.290, 0.00000, 1.300, 0.00000, 1.310, 0.00000
1.320, 0.00000, 1.330, 0.00000, 1.340, 0.00000, 1.350, 0.00000
1.360, 0.00000, 1.370, 0.00000, 1.380, 0.00000, 1.390, 0.00000
1.400, 0.00000, 1.410, 0.00000, 1.420, 0.00000, 1.430, 0.00000
1.440, 0.00000, 1.450, 0.00000, 1.460, 0.00000, 1.470, 0.00000
1.480, 0.00000, 1.490, 0.00000, 1.500, 0.00000, 1.510, 0.00000
1.520, 0.00000, 1.530, 0.00000, 1.540, 0.00000, 1.550, 0.00000
1.560, 0.00000, 1.570, 0.00000, 1.580, 0.00000, 1.590, 0.00000
1.600, 0.00000, 1.610, 0.00000, 1.620, 0.00000, 1.630, 0.00000
1.640, 0.00000, 1.650, 0.00000, 1.660, 0.00000, 1.670, 0.00000
1.680, 0.00000, 1.690, 0.00000, 1.700, 0.00000, 1.710, 0.00000
1.720, 0.00000, 1.730, 0.00000, 1.740, 0.00000, 1.750, 0.00000
1.760, 0.00000, 1.770, 0.00000, 1.780, 0.00000, 1.790, 0.00000
1.800, 0.00000, 1.810, 0.00000, 1.820, 0.00000, 1.830, 0.00000
1.840, 0.00000, 1.850, 0.00000, 1.860, 0.00000, 1.870, 0.00000
1.880, 0.00000, 1.890, 0.00000, 1.900, 0.00000, 1.910, 0.00000
1.920, 0.00000, 1.930, 0.00000, 1.940, 0.00000, 1.950, 0.00000
1.960, 0.00000, 1.970, 0.00000, 1.980, 0.00000, 1.990, 0.00000
2.000, 0.00000, 2.010, 2375.69510, 2.020, 4751.39021, 2.030, 7127.08531
2.040, 9502.78041, 2.050, 11878.47552, 2.060, 11284.55174, 2.070, 10690.62796
2.080, 10096.70419, 2.090, 9502.78041, 2.100, 8908.85664, 2.110, 8314.93286
2.120, 7721.00909, 2.130, 7127.08531, 2.140, 6533.16153, 2.150, 5939.23776
2.160, 5345.31398, 2.170, 4751.39021, 2.180, 4157.46643, 2.190, 3563.54265
2.200, 2969.61888, 2.210, 2375.69510, 2.220, 1781.77133, 2.230, 1187.84755
2.240, 593.92378, 2.250, 0.00000, 2.260, 0.00000, 2.270, 0.00000
2.280, 0.00000, 2.290, 0.00000, 2.300, 0.00000, 2.310, 0.00000
2.320, 0.00000, 2.330, 0.00000, 2.340, 0.00000, 2.350, 0.00000
2.360, 0.00000, 2.370, 0.00000, 2.380, 0.00000, 2.390, 0.00000
2.400, 0.00000, 2.410, 0.00000, 2.420, 0.00000, 2.430, 0.00000
2.440, 0.00000, 2.450, 0.00000, 2.460, 0.00000, 2.470, 0.00000
2.480, 0.00000, 2.490, 0.00000, 2.500, 0.00000, 2.510, 0.00000
2.520, 0.00000, 2.530, 0.00000, 2.540, 0.00000, 2.550, 0.00000
2.560, 0.00000, 2.570, 0.00000, 2.580, 0.00000, 2.590, 0.00000
2.600, 0.00000, 2.610, 0.00000, 2.620, 0.00000, 2.630, 0.00000
2.640, 0.00000, 2.650, 0.00000, 2.660, 0.00000, 2.670, 0.00000
2.680, 0.00000, 2.690, 0.00000, 2.700, 0.00000, 2.710, 0.00000
2.720, 0.00000, 2.730, 0.00000, 2.740, 0.00000, 2.750, 0.00000
2.760, 0.00000, 2.770, 0.00000, 2.780, 0.00000, 2.790, 0.00000
2.800, 0.00000, 2.810, 0.00000, 2.820, 0.00000, 2.830, 0.00000
2.840, 0.00000, 2.850, 0.00000, 2.860, 0.00000, 2.870, 0.00000
2.880, 0.00000, 2.890, 0.00000, 2.900, 0.00000, 2.910, 0.00000
2.920, 0.00000, 2.930, 0.00000, 2.940, 0.00000, 2.950, 0.00000
2.960, 0.00000, 2.970, 0.00000, 2.980, 0.00000, 2.990, 0.00000
3.000, 0.00000, 3.010, 0.00000, 3.020, 0.00000, 3.030, 0.00000
3.040, 0.00000, 3.050, 0.00000, 3.060, 0.00000, 3.070, 0.00000
3.080, 0.00000, 3.090, 0.00000, 3.100, 0.00000, 3.110, 0.00000
3.120, 0.00000, 3.130, 0.00000, 3.140, 0.00000, 3.150, 0.00000
3.160, 0.00000, 3.170, 0.00000, 3.180, 0.00000, 3.190, 0.00000
3.200, 0.00000, 3.210, 0.00000, 3.220, 0.00000, 3.230, 0.00000
3.240, 0.00000, 3.250, 0.00000, 3.260, 0.00000, 3.270, 0.00000
3.280, 0.00000, 3.290, 0.00000, 3.300, 0.00000, 3.310, 0.00000
3.320, 0.00000, 3.330, 0.00000, 3.340, 0.00000, 3.350, 0.00000
3.360, 0.00000, 3.370, 0.00000, 3.380, 0.00000, 3.390, 0.00000
3.400, 0.00000, 3.410, 0.00000, 3.420, 0.00000, 3.430, 0.00000
3.440, 0.00000, 3.450, 0.00000, 3.460, 0.00000, 3.470, 0.00000
3.480, 0.00000, 3.490, 0.00000, 3.500, 0.00000, 3.510, 0.00000
3.520, 0.00000, 3.530, 0.00000, 3.540, 0.00000, 3.550, 0.00000
3.560, 0.00000, 3.570, 0.00000, 3.580, 0.00000, 3.590, 0.00000
3.600, 0.00000, 3.610, 0.00000, 3.620, 0.00000, 3.630, 0.00000
3.640, 0.00000, 3.650, 0.00000, 3.660, 0.00000, 3.670, 0.00000
3.680, 0.00000, 3.690, 0.00000, 3.700, 0.00000, 3.710, 0.00000
3.720, 0.00000, 3.730, 0.00000, 3.740, 0.00000, 3.750, 0.00000
3.760, 0.00000, 3.770, 0.00000, 3.780, 0.00000, 3.790, 0.00000
3.800, 0.00000, 3.810, 0.00000, 3.820, 0.00000, 3.830, 0.00000
3.840, 0.00000, 3.850, 0.00000, 3.860, 0.00000, 3.870, 0.00000
3.880, 0.00000, 3.890, 0.00000, 3.900, 0.00000, 3.910, 0.00000
3.920, 0.00000, 3.930, 0.00000, 3.940, 0.00000, 3.950, 0.00000
3.960, 0.00000, 3.970, 0.00000, 3.980, 0.00000, 3.990, 0.00000
4.000, 0.00000, 4.010, 2330.38007, 4.020, 4660.76013, 4.030, 6991.14020
4.040, 9321.52027, 4.050, 11651.90033, 4.060, 11069.30532, 4.070, 10486.71030
4.080, 9904.11528, 4.090, 9321.52027, 4.100, 8738.92525, 4.110, 8156.33023
4.120, 7573.73522, 4.130, 6991.14020, 4.140, 6408.54518, 4.150, 5825.95017
4.160, 5243.35515, 4.170, 4660.76013, 4.180, 4078.16512, 4.190, 3495.57010
4.200, 2912.97508, 4.210, 2330.38007, 4.220, 1747.78505, 4.230, 1165.19003
4.240, 582.59502, 4.250, 0.00000, 4.260, 0.00000, 4.270, 0.00000
4.280, 0.00000, 4.290, 0.00000, 4.300, 0.00000, 4.310, 0.00000
4.320, 0.00000, 4.330, 0.00000, 4.340, 0.00000, 4.350, 0.00000
4.360, 0.00000, 4.370, 0.00000, 4.380, 0.00000, 4.390, 0.00000
4.400, 0.00000, 4.410, 0.00000, 4.420, 0.00000, 4.430, 0.00000
4.440, 0.00000, 4.450, 0.00000, 4.460, 0.00000, 4.470, 0.00000
4.480, 0.00000, 4.490, 0.00000, 4.500, 0.00000, 4.510, 0.00000
4.520, 0.00000, 4.530, 0.00000, 4.540, 0.00000, 4.550, 0.00000
4.560, 0.00000, 4.570, 0.00000, 4.580, 0.00000, 4.590, 0.00000
4.600, 0.00000, 4.610, 0.00000, 4.620, 0.00000, 4.630, 0.00000
4.640, 0.00000, 4.650, 0.00000, 4.660, 0.00000, 4.670, 0.00000
4.680, 0.00000, 4.690, 0.00000, 4.700, 0.00000, 4.710, 0.00000
4.720, 0.00000, 4.730, 0.00000, 4.740, 0.00000, 4.750, 0.00000
4.760, 0.00000, 4.770, 0.00000, 4.780, 0.00000, 4.790, 0.00000
4.800, 0.00000, 4.810, 0.00000, 4.820, 0.00000, 4.830, 0.00000
4.840, 0.00000, 4.850, 0.00000, 4.860, 0.00000, 4.870, 0.00000
4.880, 0.00000, 4.890, 0.00000, 4.900, 0.00000, 4.910, 0.00000
4.920, 0.00000, 4.930, 0.00000, 4.940, 0.00000, 4.950, 0.00000
4.960, 0.00000, 4.970, 0.00000, 4.980, 0.00000, 4.990, 0.00000
5.000, 0.00000, 5.010, 0.00000, 5.020, 0.00000, 5.030, 0.00000
5.040, 0.00000, 5.050, 0.00000, 5.060, 0.00000, 5.070, 0.00000
5.080, 0.00000, 5.090, 0.00000, 5.100, 0.00000, 5.110, 0.00000
5.120, 0.00000, 5.130, 0.00000, 5.140, 0.00000, 5.150, 0.00000
5.160, 0.00000, 5.170, 0.00000, 5.180, 0.00000, 5.190, 0.00000
5.200, 0.00000, 5.210, 0.00000, 5.220, 0.00000, 5.230, 0.00000
5.240, 0.00000, 5.250, 0.00000, 5.260, 0.00000, 5.270, 0.00000
5.280, 0.00000, 5.290, 0.00000, 5.300, 0.00000, 5.310, 0.00000
5.320, 0.00000, 5.330, 0.00000, 5.340, 0.00000, 5.350, 0.00000
5.360, 0.00000, 5.370, 0.00000, 5.380, 0.00000, 5.390, 0.00000
5.400, 0.00000, 5.410, 0.00000, 5.420, 0.00000, 5.430, 0.00000
5.440, 0.00000, 5.450, 0.00000, 5.460, 0.00000, 5.470, 0.00000
5.480, 0.00000, 5.490, 0.00000, 5.500, 0.00000, 5.510, 0.00000
5.520, 0.00000, 5.530, 0.00000, 5.540, 0.00000, 5.550, 0.00000
5.560, 0.00000, 5.570, 0.00000, 5.580, 0.00000, 5.590, 0.00000
5.600, 0.00000, 5.610, 0.00000, 5.620, 0.00000, 5.630, 0.00000
5.640, 0.00000, 5.650, 0.00000, 5.660, 0.00000, 5.670, 0.00000
5.680, 0.00000, 5.690, 0.00000, 5.700, 0.00000, 5.710, 0.00000
5.720, 0.00000, 5.730, 0.00000, 5.740, 0.00000, 5.750, 0.00000
5.760, 0.00000, 5.770, 0.00000, 5.780, 0.00000, 5.790, 0.00000
5.800, 0.00000, 5.810, 0.00000, 5.820, 0.00000, 5.830, 0.00000
5.840, 0.00000, 5.850, 0.00000, 5.860, 0.00000, 5.870, 0.00000
5.880, 0.00000, 5.890, 0.00000, 5.900, 0.00000, 5.910, 0.00000
5.920, 0.00000, 5.930, 0.00000, 5.940, 0.00000, 5.950, 0.00000
5.960, 0.00000, 5.970, 0.00000, 5.980, 0.00000, 5.990, 0.00000
6.000, 0.00000, 6.010, 2292.97969, 6.020, 4585.95937, 6.030, 6878.93906
6.040, 9171.91874, 6.050, 11464.89843, 6.060, 10891.65351, 6.070, 10318.40858
6.080, 9745.16366, 6.090, 9171.91874, 6.100, 8598.67382, 6.110, 8025.42890
6.120, 7452.18398, 6.130, 6878.93906, 6.140, 6305.69414, 6.150, 5732.44921
6.160, 5159.20429, 6.170, 4585.95937, 6.180, 4012.71445, 6.190, 3439.46953
6.200, 2866.22461, 6.210, 2292.97969, 6.220, 1719.73476, 6.230, 1146.48984
6.240, 573.24492, 6.250, 0.00000, 6.260, 0.00000, 6.270, 0.00000
6.280, 0.00000, 6.290, 0.00000, 6.300, 0.00000, 6.310, 0.00000
6.320, 0.00000, 6.330, 0.00000, 6.340, 0.00000, 6.350, 0.00000
6.360, 0.00000, 6.370, 0.00000, 6.380, 0.00000, 6.390, 0.00000
6.400, 0.00000, 6.410, 0.00000, 6.420, 0.00000, 6.430, 0.00000
6.440, 0.00000, 6.450, 0.00000, 6.460, 0.00000, 6.470, 0.00000
6.480, 0.00000, 6.490, 0.00000, 6.500, 0.00000, 6.510, 0.00000
6.520, 0.00000, 6.530, 0.00000, 6.540, 0.00000, 6.550, 0.00000
6.560, 0.00000, 6.570, 0.00000, 6.580, 0.00000, 6.590, 0.00000
6.600, 0.00000, 6.610, 0.00000, 6.620, 0.00000, 6.630, 0.00000
6.640, 0.00000, 6.650, 0.00000, 6.660, 0.00000, 6.670, 0.00000
6.680, 0.00000, 6.690, 0.00000, 6.700, 0.00000, 6.710, 0.00000
6.720, 0.00000, 6.730, 0.00000, 6.740, 0.00000, 6.750, 0.00000
6.760, 0.00000, 6.770, 0.00000, 6.780, 0.00000, 6.790, 0.00000
6.800, 0.00000, 6.810, 0.00000, 6.820, 0.00000, 6.830, 0.00000
6.840, 0.00000, 6.850, 0.00000, 6.860, 0.00000, 6.870, 0.00000
6.880, 0.00000, 6.890, 0.00000, 6.900, 0.00000, 6.910, 0.00000
6.920, 0.00000, 6.930, 0.00000, 6.940, 0.00000, 6.950, 0.00000
6.960, 0.00000, 6.970, 0.00000, 6.980, 0.00000, 6.990, 0.00000
7.000, 0.00000, 7.010, 0.00000, 7.020, 0.00000, 7.030, 0.00000
7.040, 0.00000, 7.050, 0.00000, 7.060, 0.00000, 7.070, 0.00000
7.080, 0.00000, 7.090, 0.00000, 7.100, 0.00000, 7.110, 0.00000
7.120, 0.00000, 7.130, 0.00000, 7.140, 0.00000, 7.150, 0.00000
7.160, 0.00000, 7.170, 0.00000, 7.180, 0.00000, 7.190, 0.00000
7.200, 0.00000, 7.210, 0.00000, 7.220, 0.00000, 7.230, 0.00000
7.240, 0.00000, 7.250, 0.00000, 7.260, 0.00000, 7.270, 0.00000
7.280, 0.00000, 7.290, 0.00000, 7.300, 0.00000, 7.310, 0.00000
7.320, 0.00000, 7.330, 0.00000, 7.340, 0.00000, 7.350, 0.00000
7.360, 0.00000, 7.370, 0.00000, 7.380, 0.00000, 7.390, 0.00000
7.400, 0.00000, 7.410, 0.00000, 7.420, 0.00000, 7.430, 0.00000
7.440, 0.00000, 7.450, 0.00000, 7.460, 0.00000, 7.470, 0.00000
7.480, 0.00000, 7.490, 0.00000, 7.500, 0.00000, 7.510, 0.00000
7.520, 0.00000, 7.530, 0.00000, 7.540, 0.00000, 7.550, 0.00000
7.560, 0.00000, 7.570, 0.00000, 7.580, 0.00000, 7.590, 0.00000
7.600, 0.00000, 7.610, 0.00000, 7.620, 0.00000, 7.630, 0.00000
7.640, 0.00000, 7.650, 0.00000, 7.660, 0.00000, 7.670, 0.00000
7.680, 0.00000, 7.690, 0.00000, 7.700, 0.00000, 7.710, 0.00000
7.720, 0.00000, 7.730, 0.00000, 7.740, 0.00000, 7.750, 0.00000
7.760, 0.00000, 7.770, 0.00000, 7.780, 0.00000, 7.790, 0.00000
7.800, 0.00000, 7.810, 0.00000, 7.820, 0.00000, 7.830, 0.00000
7.840, 0.00000, 7.850, 0.00000, 7.860, 0.00000, 7.870, 0.00000
7.880, 0.00000, 7.890, 0.00000, 7.900, 0.00000, 7.910, 0.00000
7.920, 0.00000, 7.930, 0.00000, 7.940, 0.00000, 7.950, 0.00000
7.960, 0.00000, 7.970, 0.00000, 7.980, 0.00000, 7.990, 0.00000
8.000, 0.00000, 8.010, 2260.71511, 8.020, 4521.43022, 8.030, 6782.14533
8.040, 9042.86043, 8.050, 11303.57554, 8.060, 10738.39676, 8.070, 10173.21799
8.080, 9608.03921, 8.090, 9042.86043, 8.100, 8477.68166, 8.110, 7912.50288
8.120, 7347.32410, 8.130, 6782.14533, 8.140, 6216.96655, 8.150, 5651.78777
8.160, 5086.60899, 8.170, 4521.43022, 8.180, 3956.25144, 8.190, 3391.07266
8.200, 2825.89389, 8.210, 2260.71511, 8.220, 1695.53633, 8.230, 1130.35755
8.240, 565.17878, 8.250, 0.00000, 8.260, 0.00000, 8.270, 0.00000
8.280, 0.00000, 8.290, 0.00000, 8.300, 0.00000, 8.310, 0.00000
8.320, 0.00000, 8.330, 0.00000, 8.340, 0.00000, 8.350, 0.00000
8.360, 0.00000, 8.370, 0.00000, 8.380, 0.00000, 8.390, 0.00000
8.400, 0.00000, 8.410, 0.00000, 8.420, 0.00000, 8.430, 0.00000
8.440, 0.00000, 8.450, 0.00000, 8.460, 0.00000, 8.470, 0.00000
8.480, 0.00000, 8.490, 0.00000, 8.500, 0.00000, 8.510, 0.00000
8.520, 0.00000, 8.530, 0.00000, 8.540, 0.00000, 8.550, 0.00000
8.560, 0.00000, 8.570, 0.00000, 8.580, 0.00000, 8.590, 0.00000
8.600, 0.00000, 8.610, 0.00000, 8.620, 0.00000, 8.630, 0.00000
8.640, 0.00000, 8.650, 0.00000, 8.660, 0.00000, 8.670, 0.00000
8.680, 0.00000, 8.690, 0.00000, 8.700, 0.00000, 8.710, 0.00000
8.720, 0.00000, 8.730, 0.00000, 8.740, 0.00000, 8.750, 0.00000
8.760, 0.00000, 8.770, 0.00000, 8.780, 0.00000, 8.790, 0.00000
8.800, 0.00000, 8.810, 0.00000, 8.820, 0.00000, 8.830, 0.00000
8.840, 0.00000, 8.850, 0.00000, 8.860, 0.00000, 8.870, 0.00000
8.880, 0.00000, 8.890, 0.00000, 8.900, 0.00000, 8.910, 0.00000
8.920, 0.00000, 8.930, 0.00000, 8.940, 0.00000, 8.950, 0.00000
8.960, 0.00000, 8.970, 0.00000, 8.980, 0.00000, 8.990, 0.00000
9.000, 0.00000, 9.010, 0.00000, 9.020, 0.00000, 9.030, 0.00000
9.040, 0.00000, 9.050, 0.00000, 9.060, 0.00000, 9.070, 0.00000
9.080, 0.00000, 9.090, 0.00000, 9.100, 0.00000, 9.110, 0.00000
9.120, 0.00000, 9.130, 0.00000, 9.140, 0.00000, 9.150, 0.00000
9.160, 0.00000, 9.170, 0.00000, 9.180, 0.00000, 9.190, 0.00000
9.200, 0.00000, 9.210, 0.00000, 9.220, 0.00000, 9.230, 0.00000
9.240, 0.00000, 9.250, 0.00000, 9.260, 0.00000, 9.270, 0.00000
9.280, 0.00000, 9.290, 0.00000, 9.300, 0.00000, 9.310, 0.00000
9.320, 0.00000, 9.330, 0.00000, 9.340, 0.00000, 9.350, 0.00000
9.360, 0.00000, 9.370, 0.00000, 9.380, 0.00000, 9.390, 0.00000
9.400, 0.00000, 9.410, 0.00000, 9.420, 0.00000, 9.430, 0.00000
9.440, 0.00000, 9.450, 0.00000, 9.460, 0.00000, 9.470, 0.00000
9.480, 0.00000, 9.490, 0.00000, 9.500, 0.00000, 9.510, 0.00000
9.520, 0.00000, 9.530, 0.00000, 9.540, 0.00000, 9.550, 0.00000
9.560, 0.00000, 9.570, 0.00000, 9.580, 0.00000, 9.590, 0.00000
9.600, 0.00000, 9.610, 0.00000, 9.620, 0.00000, 9.630, 0.00000
9.640, 0.00000, 9.650, 0.00000, 9.660, 0.00000, 9.670, 0.00000
9.680, 0.00000, 9.690, 0.00000, 9.700, 0.00000, 9.710, 0.00000
9.720, 0.00000, 9.730, 0.00000, 9.740, 0.00000, 9.750, 0.00000
9.760, 0.00000, 9.770, 0.00000, 9.780, 0.00000, 9.790, 0.00000
9.800, 0.00000, 9.810, 0.00000, 9.820, 0.00000, 9.830, 0.00000
9.840, 0.00000, 9.850, 0.00000, 9.860, 0.00000, 9.870, 0.00000
9.880, 0.00000, 9.890, 0.00000, 9.900, 0.00000, 9.910, 0.00000
9.920, 0.00000, 9.930, 0.00000, 9.940, 0.00000, 9.950, 0.00000
9.960, 0.00000, 9.970, 0.00000, 9.980, 0.00000, 9.990, 0.00000
*AMPLITUDE, NAME=ROW16
0.000, 0.00000, 0.010, 1090.33963, 0.020, 2180.67926, 0.030, 3271.01888
0.040, 4361.35851, 0.050, 5451.69814, 0.060, 5179.11323, 0.070, 4906.52833
0.080, 4633.94342, 0.090, 4361.35851, 0.100, 4088.77361, 0.110, 3816.18870
0.120, 3543.60379, 0.130, 3271.01888, 0.140, 2998.43398, 0.150, 2725.84907
0.160, 2453.26416, 0.170, 2180.67926, 0.180, 1908.09435, 0.190, 1635.50944
0.200, 1362.92454, 0.210, 1090.33963, 0.220, 817.75472, 0.230, 545.16981
0.240, 272.58491, 0.250, 0.00000, 0.260, 0.00000, 0.270, 0.00000
0.280, 0.00000, 0.290, 0.00000, 0.300, 0.00000, 0.310, 0.00000
0.320, 0.00000, 0.330, 0.00000, 0.340, 0.00000, 0.350, 0.00000
0.360, 0.00000, 0.370, 0.00000, 0.380, 0.00000, 0.390, 0.00000
0.400, 0.00000, 0.410, 0.00000, 0.420, 0.00000, 0.430, 0.00000
0.440, 0.00000, 0.450, 0.00000, 0.460, 0.00000, 0.470, 0.00000
0.480, 0.00000, 0.490, 0.00000, 0.500, 0.00000, 0.510, 0.00000
0.520, 0.00000, 0.530, 0.00000, 0.540, 0.00000, 0.550, 0.00000
0.560, 0.00000, 0.570, 0.00000, 0.580, 0.00000, 0.590, 0.00000
0.600, 0.00000, 0.610, 0.00000, 0.620, 0.00000, 0.630, 0.00000
0.640, 0.00000, 0.650, 0.00000, 0.660, 0.00000, 0.670, 0.00000
0.680, 0.00000, 0.690, 0.00000, 0.700, 0.00000, 0.710, 0.00000
0.720, 0.00000, 0.730, 0.00000, 0.740, 0.00000, 0.750, 0.00000
0.760, 0.00000, 0.770, 0.00000, 0.780, 0.00000, 0.790, 0.00000
0.800, 0.00000, 0.810, 0.00000, 0.820, 0.00000, 0.830, 0.00000
0.840, 0.00000, 0.850, 0.00000, 0.860, 0.00000, 0.870, 0.00000
0.880, 0.00000, 0.890, 0.00000, 0.900, 0.00000, 0.910, 0.00000
0.920, 0.00000, 0.930, 0.00000, 0.940, 0.00000, 0.950, 0.00000
0.960, 0.00000, 0.970, 0.00000, 0.980, 0.00000, 0.990, 0.00000
1.000, 0.00000, 1.010, 0.00000, 1.020, 0.00000, 1.030, 0.00000
1.040, 0.00000, 1.050, 0.00000, 1.060, 0.00000, 1.070, 0.00000
1.080, 0.00000, 1.090, 0.00000, 1.100, 0.00000, 1.110, 0.00000
1.120, 0.00000, 1.130, 0.00000, 1.140, 0.00000, 1.150, 0.00000
1.160, 0.00000, 1.170, 0.00000, 1.180, 0.00000, 1.190, 0.00000
1.200, 0.00000, 1.210, 0.00000, 1.220, 0.00000, 1.230, 0.00000
1.240, 0.00000, 1.250, 0.00000, 1.260, 0.00000, 1.270, 0.00000
1.280, 0.00000, 1.290, 0.00000, 1.300, 0.00000, 1.310, 0.00000
1.320, 0.00000, 1.330, 0.00000, 1.340, 0.00000, 1.350, 0.00000
1.360, 0.00000, 1.370, 0.00000, 1.380, 0.00000, 1.390, 0.00000
1.400, 0.00000, 1.410, 0.00000, 1.420, 0.00000, 1.430, 0.00000
1.440, 0.00000, 1.450, 0.00000, 1.460, 0.00000, 1.470, 0.00000
1.480, 0.00000, 1.490, 0.00000, 1.500, 0.00000, 1.510, 0.00000
1.520, 0.00000, 1.530, 0.00000, 1.540, 0.00000, 1.550, 0.00000
1.560, 0.00000, 1.570, 0.00000, 1.580, 0.00000, 1.590, 0.00000
1.600, 0.00000, 1.610, 0.00000, 1.620, 0.00000, 1.630, 0.00000
1.640, 0.00000, 1.650, 0.00000, 1.660, 0.00000, 1.670, 0.00000
1.680, 0.00000, 1.690, 0.00000, 1.700, 0.00000, 1.710, 0.00000
1.720, 0.00000, 1.730, 0.00000, 1.740, 0.00000, 1.750, 0.00000
1.760, 0.00000, 1.770, 0.00000, 1.780, 0.00000, 1.790, 0.00000
1.800, 0.00000, 1.810, 0.00000, 1.820, 0.00000, 1.830, 0.00000
1.840, 0.00000, 1.850, 0.00000, 1.860, 0.00000, 1.870, 0.00000
1.880, 0.00000, 1.890, 0.00000, 1.900, 0.00000, 1.910, 0.00000
1.920, 0.00000, 1.930, 0.00000, 1.940, 0.00000, 1.950, 0.00000
1.960, 0.00000, 1.970, 0.00000, 1.980, 0.00000, 1.990, 0.00000
2.000, 0.00000, 2.010, 1063.55473, 2.020, 2127.10946, 2.030, 3190.66420
2.040, 4254.21893, 2.050, 5317.77366, 2.060, 5051.88498, 2.070, 4785.99629
2.080, 4520.10761, 2.090, 4254.21893, 2.100, 3988.33024, 2.110, 3722.44156
2.120, 3456.55288, 2.130, 3190.66420, 2.140, 2924.77551, 2.150, 2658.88683
2.160, 2392.99815, 2.170, 2127.10946, 2.180, 1861.22078, 2.190, 1595.33210
2.200, 1329.44341, 2.210, 1063.55473, 2.220, 797.66605, 2.230, 531.77737
2.240, 265.88868, 2.250, 0.00000, 2.260, 0.00000, 2.270, 0.00000
2.280, 0.00000, 2.290, 0.00000, 2.300, 0.00000, 2.310, 0.00000
2.320, 0.00000, 2.330, 0.00000, 2.340, 0.00000, 2.350, 0.00000
2.360, 0.00000, 2.370, 0.00000, 2.380, 0.00000, 2.390, 0.00000
2.400, 0.00000, 2.410, 0.00000, 2.420, 0.00000, 2.430, 0.00000
2.440, 0.00000, 2.450, 0.00000, 2.460, 0.00000, 2.470, 0.00000
2.480, 0.00000, 2.490, 0.00000, 2.500, 0.00000, 2.510, 0.00000
2.520, 0.00000, 2.530, 0.00000, 2.540, 0.00000, 2.550, 0.00000
2.560, 0.00000, 2.570, 0.00000, 2.580, 0.00000, 2.590, 0.00000
2.600, 0.00000, 2.610, 0.00000, 2.620, 0.00000, 2.630, 0.00000
2.640, 0.00000, 2.650, 0.00000, 2.660, 0.00000, 2.670, 0.00000
2.680, 0.00000, 2.690, 0.00000, 2.700, 0.00000, 2.710, 0.00000
2.720, 0.00000, 2.730, 0.00000, 2.740, 0.00000, 2.750, 0.00000
2.760, 0.00000, 2.770, 0.00000, 2.780, 0.00000, 2.790, 0.00000
2.800, 0.00000, 2.810, 0.00000, 2.820, 0.00000, 2.830, 0.00000
2.840, 0.00000, 2.850, 0.00000, 2.860, 0.00000, 2.870, 0.00000
2.880, 0.00000, 2.890, 0.00000, 2.900, 0.00000, 2.910, 0.00000
2.920, 0.00000, 2.930, 0.00000, 2.940, 0.00000, 2.950, 0.00000
2.960, 0.00000, 2.970, 0.00000, 2.980, 0.00000, 2.990, 0.00000
3.000, 0.00000, 3.010, 0.00000, 3.020, 0.00000, 3.030, 0.00000
3.040, 0.00000, 3.050, 0.00000, 3.060, 0.00000, 3.070, 0.00000
3.080, 0.00000, 3.090, 0.00000, 3.100, 0.00000, 3.110, 0.00000
3.120, 0.00000, 3.130, 0.00000, 3.140, 0.00000, 3.150, 0.00000
3.160, 0.00000, 3.170, 0.00000, 3.180, 0.00000, 3.190, 0.00000
3.200, 0.00000, 3.210, 0.00000, 3.220, 0.00000, 3.230, 0.00000
3.240, 0.00000, 3.250, 0.00000, 3.260, 0.00000, 3.270, 0.00000
3.280, 0.00000, 3.290, 0.00000, 3.300, 0.00000, 3.310, 0.00000
3.320, 0.00000, 3.330, 0.00000, 3.340, 0.00000, 3.350, 0.00000
3.360, 0.00000, 3.370, 0.00000, 3.380, 0.00000, 3.390, 0.00000
3.400, 0.00000, 3.410, 0.00000, 3.420, 0.00000, 3.430, 0.00000
3.440, 0.00000, 3.450, 0.00000, 3.460, 0.00000, 3.470, 0.00000
3.480, 0.00000, 3.490, 0.00000, 3.500, 0.00000, 3.510, 0.00000
3.520, 0.00000, 3.530, 0.00000, 3.540, 0.00000, 3.550, 0.00000
3.560, 0.00000, 3.570, 0.00000, 3.580, 0.00000, 3.590, 0.00000
3.600, 0.00000, 3.610, 0.00000, 3.620, 0.00000, 3.630, 0.00000
3.640, 0.00000, 3.650, 0.00000, 3.660, 0.00000, 3.670, 0.00000
3.680, 0.00000, 3.690, 0.00000, 3.700, 0.00000, 3.710, 0.00000
3.720, 0.00000, 3.730, 0.00000, 3.740, 0.00000, 3.750, 0.00000
3.760, 0.00000, 3.770, 0.00000, 3.780, 0.00000, 3.790, 0.00000
3.800, 0.00000, 3.810, 0.00000, 3.820, 0.00000, 3.830, 0.00000
3.840, 0.00000, 3.850, 0.00000, 3.860, 0.00000, 3.870, 0.00000
3.880, 0.00000, 3.890, 0.00000, 3.900, 0.00000, 3.910, 0.00000
3.920, 0.00000, 3.930, 0.00000, 3.940, 0.00000, 3.950, 0.00000
3.960, 0.00000, 3.970, 0.00000, 3.980, 0.00000, 3.990, 0.00000
4.000, 0.00000, 4.010, 1043.26803, 4.020, 2086.53606, 4.030, 3129.80409
4.040, 4173.07211, 4.050, 5216.34014, 4.060, 4955.52314, 4.070, 4694.70613
4.080, 4433.88912, 4.090, 4173.07211, 4.100, 3912.25511, 4.110, 3651.43810
4.120, 3390.62109, 4.130, 3129.80409, 4.140, 2868.98708, 4.150, 2608.17007
4.160, 2347.35306, 4.170, 2086.53606, 4.180, 1825.71905, 4.190, 1564.90204
4.200, 1304.08504, 4.210, 1043.26803, 4.220, 782.45102, 4.230, 521.63401
4.240, 260.81701, 4.250, 0.00000, 4.260, 0.00000, 4.270, 0.00000
4.280, 0.00000, 4.290, 0.00000, 4.300, 0.00000, 4.310, 0.00000
4.320, 0.00000, 4.330, 0.00000, 4.340, 0.00000, 4.350, 0.00000
4.360, 0.00000, 4.370, 0.00000, 4.380, 0.00000, 4.390, 0.00000
4.400, 0.00000, 4.410, 0.00000, 4.420, 0.00000, 4.430, 0.00000
4.440, 0.00000, 4.450, 0.00000, 4.460, 0.00000, 4.470, 0.00000
4.480, 0.00000, 4.490, 0.00000, 4.500, 0.00000, 4.510, 0.00000
4.520, 0.00000, 4.530, 0.00000, 4.540, 0.00000, 4.550, 0.00000
4.560, 0.00000, 4.570, 0.00000, 4.580, 0.00000, 4.590, 0.00000
4.600, 0.00000, 4.610, 0.00000, 4.620, 0.00000, 4.630, 0.00000
4.640, 0.00000, 4.650, 0.00000, 4.660, 0.00000, 4.670, 0.00000
4.680, 0.00000, 4.690, 0.00000, 4.700, 0.00000, 4.710, 0.00000
4.720, 0.00000, 4.730, 0.00000, 4.740, 0.00000, 4.750, 0.00000
4.760, 0.00000, 4.770, 0.00000, 4.780, 0.00000, 4.790, 0.00000
4.800, 0.00000, 4.810, 0.00000, 4.820, 0.00000, 4.830, 0.00000
4.840, 0.00000, 4.850, 0.00000, 4.860, 0.00000, 4.870, 0.00000
4.880, 0.00000, 4.890, 0.00000, 4.900, 0.00000, 4.910, 0.00000
4.920, 0.00000, 4.930, 0.00000, 4.940, 0.00000, 4.950, 0.00000
4.960, 0.00000, 4.970, 0.00000, 4.980, 0.00000, 4.990, 0.00000
5.000, 0.00000, 5.010, 0.00000, 5.020, 0.00000, 5.030, 0.00000
5.040, 0.00000, 5.050, 0.00000, 5.060, 0.00000, 5.070, 0.00000
5.080, 0.00000, 5.090, 0.00000, 5.100, 0.00000, 5.110, 0.00000
5.120, 0.00000, 5.130, 0.00000, 5.140, 0.00000, 5.150, 0.00000
5.160, 0.00000, 5.170, 0.00000, 5.180, 0.00000, 5.190, 0.00000
5.200, 0.00000, 5.210, 0.00000, 5.220, 0.00000, 5.230, 0.00000
5.240, 0.00000, 5.250, 0.00000, 5.260, 0.00000, 5.270, 0.00000
5.280, 0.00000, 5.290, 0.00000, 5.300, 0.00000, 5.310, 0.00000
5.320, 0.00000, 5.330, 0.00000, 5.340, 0.00000, 5.350, 0.00000
5.360, 0.00000, 5.370, 0.00000, 5.380, 0.00000, 5.390, 0.00000
5.400, 0.00000, 5.410, 0.00000, 5.420, 0.00000, 5.430, 0.00000
5.440, 0.00000, 5.450, 0.00000, 5.460, 0.00000, 5.470, 0.00000
5.480, 0.00000, 5.490, 0.00000, 5.500, 0.00000, 5.510, 0.00000
5.520, 0.00000, 5.530, 0.00000, 5.540, 0.00000, 5.550, 0.00000
5.560, 0.00000, 5.570, 0.00000, 5.580, 0.00000, 5.590, 0.00000
5.600, 0.00000, 5.610, 0.00000, 5.620, 0.00000, 5.630, 0.00000
5.640, 0.00000, 5.650, 0.00000, 5.660, 0.00000, 5.670, 0.00000
5.680, 0.00000, 5.690, 0.00000, 5.700, 0.00000, 5.710, 0.00000
5.720, 0.00000, 5.730, 0.00000, 5.740, 0.00000, 5.750, 0.00000
5.760, 0.00000, 5.770, 0.00000, 5.780, 0.00000, 5.790, 0.00000
5.800, 0.00000, 5.810, 0.00000, 5.820, 0.00000, 5.830, 0.00000
5.840, 0.00000, 5.850, 0.00000, 5.860, 0.00000, 5.870, 0.00000
5.880, 0.00000, 5.890, 0.00000, 5.900, 0.00000, 5.910, 0.00000
5.920, 0.00000, 5.930, 0.00000, 5.940, 0.00000, 5.950, 0.00000
5.960, 0.00000, 5.970, 0.00000, 5.980, 0.00000, 5.990, 0.00000
6.000, 0.00000, 6.010, 1026.52457, 6.020, 2053.04914, 6.030, 3079.57371
6.040, 4106.09828, 6.050, 5132.62285, 6.060, 4875.99171, 6.070, 4619.36057
6.080, 4362.72942, 6.090, 4106.09828, 6.100, 3849.46714, 6.110, 3592.83600
6.120, 3336.20485, 6.130, 3079.57371, 6.140, 2822.94257, 6.150, 2566.31143
6.160, 2309.68028, 6.170, 2053.04914, 6.180, 1796.41800, 6.190, 1539.78686
6.200, 1283.15571, 6.210, 1026.52457, 6.220, 769.89343, 6.230, 513.26229
6.240, 256.63114, 6.250, 0.00000, 6.260, 0.00000, 6.270, 0.00000
6.280, 0.00000, 6.290, 0.00000, 6.300, 0.00000, 6.310, 0.00000
6.320, 0.00000, 6.330, 0.00000, 6.340, 0.00000, 6.350, 0.00000
6.360, 0.00000, 6.370, 0.00000, 6.380, 0.00000, 6.390, 0.00000
6.400, 0.00000, 6.410, 0.00000, 6.420, 0.00000, 6.430, 0.00000
6.440, 0.00000, 6.450, 0.00000, 6.460, 0.00000, 6.470, 0.00000
6.480, 0.00000, 6.490, 0.00000, 6.500, 0.00000, 6.510, 0.00000
6.520, 0.00000, 6.530, 0.00000, 6.540, 0.00000, 6.550, 0.00000
6.560, 0.00000, 6.570, 0.00000, 6.580, 0.00000, 6.590, 0.00000
6.600, 0.00000, 6.610, 0.00000, 6.620, 0.00000, 6.630, 0.00000
6.640, 0.00000, 6.650, 0.00000, 6.660, 0.00000, 6.670, 0.00000
6.680, 0.00000, 6.690, 0.00000, 6.700, 0.00000, 6.710, 0.00000
6.720, 0.00000, 6.730, 0.00000, 6.740, 0.00000, 6.750, 0.00000
6.760, 0.00000, 6.770, 0.00000, 6.780, 0.00000, 6.790, 0.00000
6.800, 0.00000, 6.810, 0.00000, 6.820, 0.00000, 6.830, 0.00000
6.840, 0.00000, 6.850, 0.00000, 6.860, 0.00000, 6.870, 0.00000
6.880, 0.00000, 6.890, 0.00000, 6.900, 0.00000, 6.910, 0.00000
6.920, 0.00000, 6.930, 0.00000, 6.940, 0.00000, 6.950, 0.00000
6.960, 0.00000, 6.970, 0.00000, 6.980, 0.00000, 6.990, 0.00000
7.000, 0.00000, 7.010, 0.00000, 7.020, 0.00000, 7.030, 0.00000
7.040, 0.00000, 7.050, 0.00000, 7.060, 0.00000, 7.070, 0.00000
7.080, 0.00000, 7.090, 0.00000, 7.100, 0.00000, 7.110, 0.00000
7.120, 0.00000, 7.130, 0.00000, 7.140, 0.00000, 7.150, 0.00000
7.160, 0.00000, 7.170, 0.00000, 7.180, 0.00000, 7.190, 0.00000
7.200, 0.00000, 7.210, 0.00000, 7.220, 0.00000, 7.230, 0.00000
7.240, 0.00000, 7.250, 0.00000, 7.260, 0.00000, 7.270, 0.00000
7.280, 0.00000, 7.290, 0.00000, 7.300, 0.00000, 7.310, 0.00000
7.320, 0.00000, 7.330, 0.00000, 7.340, 0.00000, 7.350, 0.00000
7.360, 0.00000, 7.370, 0.00000, 7.380, 0.00000, 7.390, 0.00000
7.400, 0.00000, 7.410, 0.00000, 7.420, 0.00000, 7.430, 0.00000
7.440, 0.00000, 7.450, 0.00000, 7.460, 0.00000, 7.470, 0.00000
7.480, 0.00000, 7.490, 0.00000, 7.500, 0.00000, 7.510, 0.00000
7.520, 0.00000, 7.530, 0.00000, 7.540, 0.00000, 7.550, 0.00000
7.560, 0.00000, 7.570, 0.00000, 7.580, 0.00000, 7.590, 0.00000
7.600, 0.00000, 7.610, 0.00000, 7.620, 0.00000, 7.630, 0.00000
7.640, 0.00000, 7.650, 0.00000, 7.660, 0.00000, 7.670, 0.00000
7.680, 0.00000, 7.690, 0.00000, 7.700, 0.00000, 7.710, 0.00000
7.720, 0.00000, 7.730, 0.00000, 7.740, 0.00000, 7.750, 0.00000
7.760, 0.00000, 7.770, 0.00000, 7.780, 0.00000, 7.790, 0.00000
7.800, 0.00000, 7.810, 0.00000, 7.820, 0.00000, 7.830, 0.00000
7.840, 0.00000, 7.850, 0.00000, 7.860, 0.00000, 7.870, 0.00000
7.880, 0.00000, 7.890, 0.00000, 7.900, 0.00000, 7.910, 0.00000
7.920, 0.00000, 7.930, 0.00000, 7.940, 0.00000, 7.950, 0.00000
7.960, 0.00000, 7.970, 0.00000, 7.980, 0.00000, 7.990, 0.00000
8.000, 0.00000, 8.010, 1012.08032, 8.020, 2024.16063, 8.030, 3036.24095
8.040, 4048.32126, 8.050, 5060.40158, 8.060, 4807.38150, 8.070, 4554.36142
8.080, 4301.34134, 8.090, 4048.32126, 8.100, 3795.30119, 8.110, 3542.28111
8.120, 3289.26103, 8.130, 3036.24095, 8.140, 2783.22087, 8.150, 2530.20079
8.160, 2277.18071, 8.170, 2024.16063, 8.180, 1771.14055, 8.190, 1518.12047
8.200, 1265.10040, 8.210, 1012.08032, 8.220, 759.06024, 8.230, 506.04016
8.240, 253.02008, 8.250, 0.00000, 8.260, 0.00000, 8.270, 0.00000
8.280, 0.00000, 8.290, 0.00000, 8.300, 0.00000, 8.310, 0.00000
8.320, 0.00000, 8.330, 0.00000, 8.340, 0.00000, 8.350, 0.00000
8.360, 0.00000, 8.370, 0.00000, 8.380, 0.00000, 8.390, 0.00000
8.400, 0.00000, 8.410, 0.00000, 8.420, 0.00000, 8.430, 0.00000
8.440, 0.00000, 8.450, 0.00000, 8.460, 0.00000, 8.470, 0.00000
8.480, 0.00000, 8.490, 0.00000, 8.500, 0.00000, 8.510, 0.00000
8.520, 0.00000, 8.530, 0.00000, 8.540, 0.00000, 8.550, 0.00000
8.560, 0.00000, 8.570, 0.00000, 8.580, 0.00000, 8.590, 0.00000
8.600, 0.00000, 8.610, 0.00000, 8.620, 0.00000, 8.630, 0.00000
8.640, 0.00000, 8.650, 0.00000, 8.660, 0.00000, 8.670, 0.00000
8.680, 0.00000, 8.690, 0.00000, 8.700, 0.00000, 8.710, 0.00000
8.720, 0.00000, 8.730, 0.00000, 8.740, 0.00000, 8.750, 0.00000
8.760, 0.00000, 8.770, 0.00000, 8.780, 0.00000, 8.790, 0.00000
8.800, 0.00000, 8.810, 0.00000, 8.820, 0.00000, 8.830, 0.00000
8.840, 0.00000, 8.850, 0.00000, 8.860, 0.00000, 8.870, 0.00000
8.880, 0.00000, 8.890, 0.00000, 8.900, 0.00000, 8.910, 0.00000
8.920, 0.00000, 8.930, 0.00000, 8.940, 0.00000, 8.950, 0.00000
8.960, 0.00000, 8.970, 0.00000, 8.980, 0.00000, 8.990, 0.00000
9.000, 0.00000, 9.010, 0.00000, 9.020, 0.00000, 9.030, 0.00000
9.040, 0.00000, 9.050, 0.00000, 9.060, 0.00000, 9.070, 0.00000
9.080, 0.00000, 9.090, 0.00000, 9.100, 0.00000, 9.110, 0.00000
9.120, 0.00000, 9.130, 0.00000, 9.140, 0.00000, 9.150, 0.00000
9.160, 0.00000, 9.170, 0.00000, 9.180, 0.00000, 9.190, 0.00000
9.200, 0.00000, 9.210, 0.00000, 9.220, 0.00000, 9.230, 0.00000
9.240, 0.00000, 9.250, 0.00000, 9.260, 0.00000, 9.270, 0.00000
9.280, 0.00000, 9.290, 0.00000, 9.300, 0.00000, 9.310, 0.00000
9.320, 0.00000, 9.330, 0.00000, 9.340, 0.00000, 9.350, 0.00000
9.360, 0.00000, 9.370, 0.00000, 9.380, 0.00000, 9.390, 0.00000
9.400, 0.00000, 9.410, 0.00000, 9.420, 0.00000, 9.430, 0.00000
9.440, 0.00000, 9.450, 0.00000, 9.460, 0.00000, 9.470, 0.00000
9.480, 0.00000, 9.490, 0.00000, 9.500, 0.00000, 9.510, 0.00000
9.520, 0.00000, 9.530, 0.00000, 9.540, 0.00000, 9.550, 0.00000
9.560, 0.00000, 9.570, 0.00000, 9.580, 0.00000, 9.590, 0.00000
9.600, 0.00000, 9.610, 0.00000, 9.620, 0.00000, 9.630, 0.00000
9.640, 0.00000, 9.650, 0.00000, 9.660, 0.00000, 9.670, 0.00000
9.680, 0.00000, 9.690, 0.00000, 9.700, 0.00000, 9.710, 0.00000
9.720, 0.00000, 9.730, 0.00000, 9.740, 0.00000, 9.750, 0.00000
9.760, 0.00000, 9.770, 0.00000, 9.780, 0.00000, 9.790, 0.00000
9.800, 0.00000, 9.810, 0.00000, 9.820, 0.00000, 9.830, 0.00000
9.840, 0.00000, 9.850, 0.00000, 9.860, 0.00000, 9.870, 0.00000
9.880, 0.00000, 9.890, 0.00000, 9.900, 0.00000, 9.910, 0.00000
9.920, 0.00000, 9.930, 0.00000, 9.940, 0.00000, 9.950, 0.00000
9.960, 0.00000, 9.970, 0.00000, 9.980, 0.00000, 9.990, 0.00000
*AMPLITUDE, NAME=ROW17
0.000, 0.00000, 0.010, 484.52372, 0.020, 969.04745, 0.030, 1453.57117
0.040, 1938.09489, 0.050, 2422.61861, 0.060, 2301.48768, 0.070, 2180.35675
0.080, 2059.22582, 0.090, 1938.09489, 0.100, 1816.96396, 0.110, 1695.83303
0.120, 1574.70210, 0.130, 1453.57117, 0.140, 1332.44024, 0.150, 1211.30931
0.160, 1090.17838, 0.170, 969.04745, 0.180, 847.91652, 0.190, 726.78558
0.200, 605.65465, 0.210, 484.52372, 0.220, 363.39279, 0.230, 242.26186
0.240, 121.13093, 0.250, 0.00000, 0.260, 0.00000, 0.270, 0.00000
0.280, 0.00000, 0.290, 0.00000, 0.300, 0.00000, 0.310, 0.00000
0.320, 0.00000, 0.330, 0.00000, 0.340, 0.00000, 0.350, 0.00000
0.360, 0.00000, 0.370, 0.00000, 0.380, 0.00000, 0.390, 0.00000
0.400, 0.00000, 0.410, 0.00000, 0.420, 0.00000, 0.430, 0.00000
0.440, 0.00000, 0.450, 0.00000, 0.460, 0.00000, 0.470, 0.00000
0.480, 0.00000, 0.490, 0.00000, 0.500, 0.00000, 0.510, 0.00000
0.520, 0.00000, 0.530, 0.00000, 0.540, 0.00000, 0.550, 0.00000
0.560, 0.00000, 0.570, 0.00000, 0.580, 0.00000, 0.590, 0.00000
0.600, 0.00000, 0.610, 0.00000, 0.620, 0.00000, 0.630, 0.00000
0.640, 0.00000, 0.650, 0.00000, 0.660, 0.00000, 0.670, 0.00000
0.680, 0.00000, 0.690, 0.00000, 0.700, 0.00000, 0.710, 0.00000
0.720, 0.00000, 0.730, 0.00000, 0.740, 0.00000, 0.750, 0.00000
0.760, 0.00000, 0.770, 0.00000, 0.780, 0.00000, 0.790, 0.00000
0.800, 0.00000, 0.810, 0.00000, 0.820, 0.00000, 0.830, 0.00000
0.840, 0.00000, 0.850, 0.00000, 0.860, 0.00000, 0.870, 0.00000
0.880, 0.00000, 0.890, 0.00000, 0.900, 0.00000, 0.910, 0.00000
0.920, 0.00000, 0.930, 0.00000, 0.940, 0.00000, 0.950, 0.00000
0.960, 0.00000, 0.970, 0.00000, 0.980, 0.00000, 0.990, 0.00000
1.000, 0.00000, 1.010, 0.00000, 1.020, 0.00000, 1.030, 0.00000
1.040, 0.00000, 1.050, 0.00000, 1.060, 0.00000, 1.070, 0.00000
1.080, 0.00000, 1.090, 0.00000, 1.100, 0.00000, 1.110, 0.00000
1.120, 0.00000, 1.130, 0.00000, 1.140, 0.00000, 1.150, 0.00000
1.160, 0.00000, 1.170, 0.00000, 1.180, 0.00000, 1.190, 0.00000
1.200, 0.00000, 1.210, 0.00000, 1.220, 0.00000, 1.230, 0.00000
1.240, 0.00000, 1.250, 0.00000, 1.260, 0.00000, 1.270, 0.00000
1.280, 0.00000, 1.290, 0.00000, 1.300, 0.00000, 1.310, 0.00000
1.320, 0.00000, 1.330, 0.00000, 1.340, 0.00000, 1.350, 0.00000
1.360, 0.00000, 1.370, 0.00000, 1.380, 0.00000, 1.390, 0.00000
1.400, 0.00000, 1.410, 0.00000, 1.420, 0.00000, 1.430, 0.00000
1.440, 0.00000, 1.450, 0.00000, 1.460, 0.00000, 1.470, 0.00000
1.480, 0.00000, 1.490, 0.00000, 1.500, 0.00000, 1.510, 0.00000
1.520, 0.00000, 1.530, 0.00000, 1.540, 0.00000, 1.550, 0.00000
1.560, 0.00000, 1.570, 0.00000, 1.580, 0.00000, 1.590, 0.00000
1.600, 0.00000, 1.610, 0.00000, 1.620, 0.00000, 1.630, 0.00000
1.640, 0.00000, 1.650, 0.00000, 1.660, 0.00000, 1.670, 0.00000
1.680, 0.00000, 1.690, 0.00000, 1.700, 0.00000, 1.710, 0.00000
1.720, 0.00000, 1.730, 0.00000, 1.740, 0.00000, 1.750, 0.00000
1.760, 0.00000, 1.770, 0.00000, 1.780, 0.00000, 1.790, 0.00000
1.800, 0.00000, 1.810, 0.00000, 1.820, 0.00000, 1.830, 0.00000
1.840, 0.00000, 1.850, 0.00000, 1.860, 0.00000, 1.870, 0.00000
1.880, 0.00000, 1.890, 0.00000, 1.900, 0.00000, 1.910, 0.00000
1.920, 0.00000, 1.930, 0.00000, 1.940, 0.00000, 1.950, 0.00000
1.960, 0.00000, 1.970, 0.00000, 1.980, 0.00000, 1.990, 0.00000
2.000, 0.00000, 2.010, 472.62109, 2.020, 945.24217, 2.030, 1417.86326
2.040, 1890.48434, 2.050, 2363.10543, 2.060, 2244.95015, 2.070, 2126.79488
2.080, 2008.63961, 2.090, 1890.48434, 2.100, 1772.32907, 2.110, 1654.17380
2.120, 1536.01853, 2.130, 1417.86326, 2.140, 1299.70798, 2.150, 1181.55271
2.160, 1063.39744, 2.170, 945.24217, 2.180, 827.08690, 2.190, 708.93163
2.200, 590.77636, 2.210, 472.62109, 2.220, 354.46581, 2.230, 236.31054
2.240, 118.15527, 2.250, 0.00000, 2.260, 0.00000, 2.270, 0.00000
2.280, 0.00000, 2.290, 0.00000, 2.300, 0.00000, 2.310, 0.00000
2.320, 0.00000, 2.330, 0.00000, 2.340, 0.00000, 2.350, 0.00000
2.360, 0.00000, 2.370, 0.00000, 2.380, 0.00000, 2.390, 0.00000
2.400, 0.00000, 2.410, 0.00000, 2.420, 0.00000, 2.430, 0.00000
2.440, 0.00000, 2.450, 0.00000, 2.460, 0.00000, 2.470, 0.00000
2.480, 0.00000, 2.490, 0.00000, 2.500, 0.00000, 2.510, 0.00000
2.520, 0.00000, 2.530, 0.00000, 2.540, 0.00000, 2.550, 0.00000
2.560, 0.00000, 2.570, 0.00000, 2.580, 0.00000, 2.590, 0.00000
2.600, 0.00000, 2.610, 0.00000, 2.620, 0.00000, 2.630, 0.00000
2.640, 0.00000, 2.650, 0.00000, 2.660, 0.00000, 2.670, 0.00000
2.680, 0.00000, 2.690, 0.00000, 2.700, 0.00000, 2.710, 0.00000
2.720, 0.00000, 2.730, 0.00000, 2.740, 0.00000, 2.750, 0.00000
2.760, 0.00000, 2.770, 0.00000, 2.780, 0.00000, 2.790, 0.00000
2.800, 0.00000, 2.810, 0.00000, 2.820, 0.00000, 2.830, 0.00000
2.840, 0.00000, 2.850, 0.00000, 2.860, 0.00000, 2.870, 0.00000
2.880, 0.00000, 2.890, 0.00000, 2.900, 0.00000, 2.910, 0.00000
2.920, 0.00000, 2.930, 0.00000, 2.940, 0.00000, 2.950, 0.00000
2.960, 0.00000, 2.970, 0.00000, 2.980, 0.00000, 2.990, 0.00000
3.000, 0.00000, 3.010, 0.00000, 3.020, 0.00000, 3.030, 0.00000
3.040, 0.00000, 3.050, 0.00000, 3.060, 0.00000, 3.070, 0.00000
3.080, 0.00000, 3.090, 0.00000, 3.100, 0.00000, 3.110, 0.00000
3.120, 0.00000, 3.130, 0.00000, 3.140, 0.00000, 3.150, 0.00000
3.160, 0.00000, 3.170, 0.00000, 3.180, 0.00000, 3.190, 0.00000
3.200, 0.00000, 3.210, 0.00000, 3.220, 0.00000, 3.230, 0.00000
3.240, 0.00000, 3.250, 0.00000, 3.260, 0.00000, 3.270, 0.00000
3.280, 0.00000, 3.290, 0.00000, 3.300, 0.00000, 3.310, 0.00000
3.320, 0.00000, 3.330, 0.00000, 3.340, 0.00000, 3.350, 0.00000
3.360, 0.00000, 3.370, 0.00000, 3.380, 0.00000, 3.390, 0.00000
3.400, 0.00000, 3.410, 0.00000, 3.420, 0.00000, 3.430, 0.00000
3.440, 0.00000, 3.450, 0.00000, 3.460, 0.00000, 3.470, 0.00000
3.480, 0.00000, 3.490, 0.00000, 3.500, 0.00000, 3.510, 0.00000
3.520, 0.00000, 3.530, 0.00000, 3.540, 0.00000, 3.550, 0.00000
3.560, 0.00000, 3.570, 0.00000, 3.580, 0.00000, 3.590, 0.00000
3.600, 0.00000, 3.610, 0.00000, 3.620, 0.00000, 3.630, 0.00000
3.640, 0.00000, 3.650, 0.00000, 3.660, 0.00000, 3.670, 0.00000
3.680, 0.00000, 3.690, 0.00000, 3.700, 0.00000, 3.710, 0.00000
3.720, 0.00000, 3.730, 0.00000, 3.740, 0.00000, 3.750, 0.00000
3.760, 0.00000, 3.770, 0.00000, 3.780, 0.00000, 3.790, 0.00000
3.800, 0.00000, 3.810, 0.00000, 3.820, 0.00000, 3.830, 0.00000
3.840, 0.00000, 3.850, 0.00000, 3.860, 0.00000, 3.870, 0.00000
3.880, 0.00000, 3.890, 0.00000, 3.900, 0.00000, 3.910, 0.00000
3.920, 0.00000, 3.930, 0.00000, 3.940, 0.00000, 3.950, 0.00000
3.960, 0.00000, 3.970, 0.00000, 3.980, 0.00000, 3.990, 0.00000
4.000, 0.00000, 4.010, 463.60611, 4.020, 927.21221, 4.030, 1390.81832
4.040, 1854.42442, 4.050, 2318.03053, 4.060, 2202.12900, 4.070, 2086.22748
4.080, 1970.32595, 4.090, 1854.42442, 4.100, 1738.52290, 4.110, 1622.62137
4.120, 1506.71984, 4.130, 1390.81832, 4.140, 1274.91679, 4.150, 1159.01527
4.160, 1043.11374, 4.170, 927.21221, 4.180, 811.31069, 4.190, 695.40916
4.200, 579.50763, 4.210, 463.60611, 4.220, 347.70458, 4.230, 231.80305
4.240, 115.90153, 4.250, 0.00000, 4.260, 0.00000, 4.270, 0.00000
4.280, 0.00000, 4.290, 0.00000, 4.300, 0.00000, 4.310, 0.00000
4.320, 0.00000, 4.330, 0.00000, 4.340, 0.00000, 4.350, 0.00000
4.360, 0.00000, 4.370, 0.00000, 4.380, 0.00000, 4.390, 0.00000
4.400, 0.00000, 4.410, 0.00000, 4.420, 0.00000, 4.430, 0.00000
4.440, 0.00000, 4.450, 0.00000, 4.460, 0.00000, 4.470, 0.00000
4.480, 0.00000, 4.490, 0.00000, 4.500, 0.00000, 4.510, 0.00000
4.520, 0.00000, 4.530, 0.00000, 4.540, 0.00000, 4.550, 0.00000
4.560, 0.00000, 4.570, 0.00000, 4.580, 0.00000, 4.590, 0.00000
4.600, 0.00000, 4.610, 0.00000, 4.620, 0.00000, 4.630, 0.00000
4.640, 0.00000, 4.650, 0.00000, 4.660, 0.00000, 4.670, 0.00000
4.680, 0.00000, 4.690, 0.00000, 4.700, 0.00000, 4.710, 0.00000
4.720, 0.00000, 4.730, 0.00000, 4.740, 0.00000, 4.750, 0.00000
4.760, 0.00000, 4.770, 0.00000, 4.780, 0.00000, 4.790, 0.00000
4.800, 0.00000, 4.810, 0.00000, 4.820, 0.00000, 4.830, 0.00000
4.840, 0.00000, 4.850, 0.00000, 4.860, 0.00000, 4.870, 0.00000
4.880, 0.00000, 4.890, 0.00000, 4.900, 0.00000, 4.910, 0.00000
4.920, 0.00000, 4.930, 0.00000, 4.940, 0.00000, 4.950, 0.00000
4.960, 0.00000, 4.970, 0.00000, 4.980, 0.00000, 4.990, 0.00000
5.000, 0.00000, 5.010, 0.00000, 5.020, 0.00000, 5.030, 0.00000
5.040, 0.00000, 5.050, 0.00000, 5.060, 0.00000, 5.070, 0.00000
5.080, 0.00000, 5.090, 0.00000, 5.100, 0.00000, 5.110, 0.00000
5.120, 0.00000, 5.130, 0.00000, 5.140, 0.00000, 5.150, 0.00000
5.160, 0.00000, 5.170, 0.00000, 5.180, 0.00000, 5.190, 0.00000
5.200, 0.00000, 5.210, 0.00000, 5.220, 0.00000, 5.230, 0.00000
5.240, 0.00000, 5.250, 0.00000, 5.260, 0.00000, 5.270, 0.00000
5.280, 0.00000, 5.290, 0.00000, 5.300, 0.00000, 5.310, 0.00000
5.320, 0.00000, 5.330, 0.00000, 5.340, 0.00000, 5.350, 0.00000
5.360, 0.00000, 5.370, 0.00000, 5.380, 0.00000, 5.390, 0.00000
5.400, 0.00000, 5.410, 0.00000, 5.420, 0.00000, 5.430, 0.00000
5.440, 0.00000, 5.450, 0.00000, 5.460, 0.00000, 5.470, 0.00000
5.480, 0.00000, 5.490, 0.00000, 5.500, 0.00000, 5.510, 0.00000
5.520, 0.00000, 5.530, 0.00000, 5.540, 0.00000, 5.550, 0.00000
5.560, 0.00000, 5.570, 0.00000, 5.580, 0.00000, 5.590, 0.00000
5.600, 0.00000, 5.610, 0.00000, 5.620, 0.00000, 5.630, 0.00000
5.640, 0.00000, 5.650, 0.00000, 5.660, 0.00000, 5.670, 0.00000
5.680, 0.00000, 5.690, 0.00000, 5.700, 0.00000, 5.710, 0.00000
5.720, 0.00000, 5.730, 0.00000, 5.740, 0.00000, 5.750, 0.00000
5.760, 0.00000, 5.770, 0.00000, 5.780, 0.00000, 5.790, 0.00000
5.800, 0.00000, 5.810, 0.00000, 5.820, 0.00000, 5.830, 0.00000
5.840, 0.00000, 5.850, 0.00000, 5.860, 0.00000, 5.870, 0.00000
5.880, 0.00000, 5.890, 0.00000, 5.900, 0.00000, 5.910, 0.00000
5.920, 0.00000, 5.930, 0.00000, 5.940, 0.00000, 5.950, 0.00000
5.960, 0.00000, 5.970, 0.00000, 5.980, 0.00000, 5.990, 0.00000
6.000, 0.00000, 6.010, 456.16567, 6.020, 912.33134, 6.030, 1368.49701
6.040, 1824.66268, 6.050, 2280.82835, 6.060, 2166.78693, 6.070, 2052.74551
6.080, 1938.70410, 6.090, 1824.66268, 6.100, 1710.62126, 6.110, 1596.57984
6.120, 1482.53843, 6.130, 1368.49701, 6.140, 1254.45559, 6.150, 1140.41417
6.160, 1026.37276, 6.170, 912.33134, 6.180, 798.28992, 6.190, 684.24850
6.200, 570.20709, 6.210, 456.16567, 6.220, 342.12425, 6.230, 228.08283
6.240, 114.04142, 6.250, 0.00000, 6.260, 0.00000, 6.270, 0.00000
6.280, 0.00000, 6.290, 0.00000, 6.300, 0.00000, 6.310, 0.00000
6.320, 0.00000, 6.330, 0.00000, 6.340, 0.00000, 6.350, 0.00000
6.360, 0.00000, 6.370, 0.00000, 6.380, 0.00000, 6.390, 0.00000
6.400, 0.00000, 6.410, 0.00000, 6.420, 0.00000, 6.430, 0.00000
6.440, 0.00000, 6.450, 0.00000, 6.460, 0.00000, 6.470, 0.00000
6.480, 0.00000, 6.490, 0.00000, 6.500, 0.00000, 6.510, 0.00000
6.520, 0.00000, 6.530, 0.00000, 6.540, 0.00000, 6.550, 0.00000
6.560, 0.00000, 6.570, 0.00000, 6.580, 0.00000, 6.590, 0.00000
6.600, 0.00000, 6.610, 0.00000, 6.620, 0.00000, 6.630, 0.00000
6.640, 0.00000, 6.650, 0.00000, 6.660, 0.00000, 6.670, 0.00000
6.680, 0.00000, 6.690, 0.00000, 6.700, 0.00000, 6.710, 0.00000
6.720, 0.00000, 6.730, 0.00000, 6.740, 0.00000, 6.750, 0.00000
6.760, 0.00000, 6.770, 0.00000, 6.780, 0.00000, 6.790, 0.00000
6.800, 0.00000, 6.810, 0.00000, 6.820, 0.00000, 6.830, 0.00000
6.840, 0.00000, 6.850, 0.00000, 6.860, 0.00000, 6.870, 0.00000
6.880, 0.00000, 6.890, 0.00000, 6.900, 0.00000, 6.910, 0.00000
6.920, 0.00000, 6.930, 0.00000, 6.940, 0.00000, 6.950, 0.00000
6.960, 0.00000, 6.970, 0.00000, 6.980, 0.00000, 6.990, 0.00000
7.000, 0.00000, 7.010, 0.00000, 7.020, 0.00000, 7.030, 0.00000
7.040, 0.00000, 7.050, 0.00000, 7.060, 0.00000, 7.070, 0.00000
7.080, 0.00000, 7.090, 0.00000, 7.100, 0.00000, 7.110, 0.00000
7.120, 0.00000, 7.130, 0.00000, 7.140, 0.00000, 7.150, 0.00000
7.160, 0.00000, 7.170, 0.00000, 7.180, 0.00000, 7.190, 0.00000
7.200, 0.00000, 7.210, 0.00000, 7.220, 0.00000, 7.230, 0.00000
7.240, 0.00000, 7.250, 0.00000, 7.260, 0.00000, 7.270, 0.00000
7.280, 0.00000, 7.290, 0.00000, 7.300, 0.00000, 7.310, 0.00000
7.320, 0.00000, 7.330, 0.00000, 7.340, 0.00000, 7.350, 0.00000
7.360, 0.00000, 7.370, 0.00000, 7.380, 0.00000, 7.390, 0.00000
7.400, 0.00000, 7.410, 0.00000, 7.420, 0.00000, 7.430, 0.00000
7.440, 0.00000, 7.450, 0.00000, 7.460, 0.00000, 7.470, 0.00000
7.480, 0.00000, 7.490, 0.00000, 7.500, 0.00000, 7.510, 0.00000
7.520, 0.00000, 7.530, 0.00000, 7.540, 0.00000, 7.550, 0.00000
7.560, 0.00000, 7.570, 0.00000, 7.580, 0.00000, 7.590, 0.00000
7.600, 0.00000, 7.610, 0.00000, 7.620, 0.00000, 7.630, 0.00000
7.640, 0.00000, 7.650, 0.00000, 7.660, 0.00000, 7.670, 0.00000
7.680, 0.00000, 7.690, 0.00000, 7.700, 0.00000, 7.710, 0.00000
7.720, 0.00000, 7.730, 0.00000, 7.740, 0.00000, 7.750, 0.00000
7.760, 0.00000, 7.770, 0.00000, 7.780, 0.00000, 7.790, 0.00000
7.800, 0.00000, 7.810, 0.00000, 7.820, 0.00000, 7.830, 0.00000
7.840, 0.00000, 7.850, 0.00000, 7.860, 0.00000, 7.870, 0.00000
7.880, 0.00000, 7.890, 0.00000, 7.900, 0.00000, 7.910, 0.00000
7.920, 0.00000, 7.930, 0.00000, 7.940, 0.00000, 7.950, 0.00000
7.960, 0.00000, 7.970, 0.00000, 7.980, 0.00000, 7.990, 0.00000
8.000, 0.00000, 8.010, 449.74695, 8.020, 899.49390, 8.030, 1349.24085
8.040, 1798.98780, 8.050, 2248.73475, 8.060, 2136.29801, 8.070, 2023.86128
8.080, 1911.42454, 8.090, 1798.98780, 8.100, 1686.55106, 8.110, 1574.11433
8.120, 1461.67759, 8.130, 1349.24085, 8.140, 1236.80411, 8.150, 1124.36738
8.160, 1011.93064, 8.170, 899.49390, 8.180, 787.05716, 8.190, 674.62043
8.200, 562.18369, 8.210, 449.74695, 8.220, 337.31021, 8.230, 224.87348
8.240, 112.43674, 8.250, 0.00000, 8.260, 0.00000, 8.270, 0.00000
8.280, 0.00000, 8.290, 0.00000, 8.300, 0.00000, 8.310, 0.00000
8.320, 0.00000, 8.330, 0.00000, 8.340, 0.00000, 8.350, 0.00000
8.360, 0.00000, 8.370, 0.00000, 8.380, 0.00000, 8.390, 0.00000
8.400, 0.00000, 8.410, 0.00000, 8.420, 0.00000, 8.430, 0.00000
8.440, 0.00000, 8.450, 0.00000, 8.460, 0.00000, 8.470, 0.00000
8.480, 0.00000, 8.490, 0.00000, 8.500, 0.00000, 8.510, 0.00000
8.520, 0.00000, 8.530, 0.00000, 8.540, 0.00000, 8.550, 0.00000
8.560, 0.00000, 8.570, 0.00000, 8.580, 0.00000, 8.590, 0.00000
8.600, 0.00000, 8.610, 0.00000, 8.620, 0.00000, 8.630, 0.00000
8.640, 0.00000, 8.650, 0.00000, 8.660, 0.00000, 8.670, 0.00000
8.680, 0.00000, 8.690, 0.00000, 8.700, 0.00000, 8.710, 0.00000
8.720, 0.00000, 8.730, 0.00000, 8.740, 0.00000, 8.750, 0.00000
8.760, 0.00000, 8.770, 0.00000, 8.780, 0.00000, 8.790, 0.00000
8.800, 0.00000, 8.810, 0.00000, 8.820, 0.00000, 8.830, 0.00000
8.840, 0.00000, 8.850, 0.00000, 8.860, 0.00000, 8.870, 0.00000
8.880, 0.00000, 8.890, 0.00000, 8.900, 0.00000, 8.910, 0.00000
8.920, 0.00000, 8.930, 0.00000, 8.940, 0.00000, 8.950, 0.00000
8.960, 0.00000, 8.970, 0.00000, 8.980, 0.00000, 8.990, 0.00000
9.000, 0.00000, 9.010, 0.00000, 9.020, 0.00000, 9.030, 0.00000
9.040, 0.00000, 9.050, 0.00000, 9.060, 0.00000, 9.070, 0.00000
9.080, 0.00000, 9.090, 0.00000, 9.100, 0.00000, 9.110, 0.00000
9.120, 0.00000, 9.130, 0.00000, 9.140, 0.00000, 9.150, 0.00000
9.160, 0.00000, 9.170, 0.00000, 9.180, 0.00000, 9.190, 0.00000
9.200, 0.00000, 9.210, 0.00000, 9.220, 0.00000, 9.230, 0.00000
9.240, 0.00000, 9.250, 0.00000, 9.260, 0.00000, 9.270, 0.00000
9.280, 0.00000, 9.290, 0.00000, 9.300, 0.00000, 9.310, 0.00000
9.320, 0.00000, 9.330, 0.00000, 9.340, 0.00000, 9.350, 0.00000
9.360, 0.00000, 9.370, 0.00000, 9.380, 0.00000, 9.390, 0.00000
9.400, 0.00000, 9.410, 0.00000, 9.420, 0.00000, 9.430, 0.00000
9.440, 0.00000, 9.450, 0.00000, 9.460, 0.00000, 9.470, 0.00000
9.480, 0.00000, 9.490, 0.00000, 9.500, 0.00000, 9.510, 0.00000
9.520, 0.00000, 9.530, 0.00000, 9.540, 0.00000, 9.550, 0.00000
9.560, 0.00000, 9.570, 0.00000, 9.580, 0.00000, 9.590, 0.00000
9.600, 0.00000, 9.610, 0.00000, 9.620, 0.00000, 9.630, 0.00000
9.640, 0.00000, 9.650, 0.00000, 9.660, 0.00000, 9.670, 0.00000
9.680, 0.00000, 9.690, 0.00000, 9.700, 0.00000, 9.710, 0.00000
9.720, 0.00000, 9.730, 0.00000, 9.740, 0.00000, 9.750, 0.00000
9.760, 0.00000, 9.770, 0.00000, 9.780, 0.00000, 9.790, 0.00000
9.800, 0.00000, 9.810, 0.00000, 9.820, 0.00000, 9.830, 0.00000
9.840, 0.00000, 9.850, 0.00000, 9.860, 0.00000, 9.870, 0.00000
9.880, 0.00000, 9.890, 0.00000, 9.900, 0.00000, 9.910, 0.00000
9.920, 0.00000, 9.930, 0.00000, 9.940, 0.00000, 9.950, 0.00000
9.960, 0.00000, 9.970, 0.00000, 9.980, 0.00000, 9.990, 0.00000
*AMPLITUDE, NAME=ROW18
0.000, 0.00000, 0.010, 214.81959, 0.020, 429.63919, 0.030, 644.45878
0.040, 859.27837, 0.050, 1074.09797, 0.060, 1020.39307, 0.070, 966.68817
0.080, 912.98327, 0.090, 859.27837, 0.100, 805.57348, 0.110, 751.86858
0.120, 698.16368, 0.130, 644.45878, 0.140, 590.75388, 0.150, 537.04898
0.160, 483.34409, 0.170, 429.63919, 0.180, 375.93429, 0.190, 322.22939
0.200, 268.52449, 0.210, 214.81959, 0.220, 161.11470, 0.230, 107.40980
0.240, 53.70490, 0.250, 0.00000, 0.260, 0.00000, 0.270, 0.00000
0.280, 0.00000, 0.290, 0.00000, 0.300, 0.00000, 0.310, 0.00000
0.320, 0.00000, 0.330, 0.00000, 0.340, 0.00000, 0.350, 0.00000
0.360, 0.00000, 0.370, 0.00000, 0.380, 0.00000, 0.390, 0.00000
0.400, 0.00000, 0.410, 0.00000, 0.420, 0.00000, 0.430, 0.00000
0.440, 0.00000, 0.450, 0.00000, 0.460, 0.00000, 0.470, 0.00000
0.480, 0.00000, 0.490, 0.00000, 0.500, 0.00000, 0.510, 0.00000
0.520, 0.00000, 0.530, 0.00000, 0.540, 0.00000, 0.550, 0.00000
0.560, 0.00000, 0.570, 0.00000, 0.580, 0.00000, 0.590, 0.00000
0.600, 0.00000, 0.610, 0.00000, 0.620, 0.00000, 0.630, 0.00000
0.640, 0.00000, 0.650, 0.00000, 0.660, 0.00000, 0.670, 0.00000
0.680, 0.00000, 0.690, 0.00000, 0.700, 0.00000, 0.710, 0.00000
0.720, 0.00000, 0.730, 0.00000, 0.740, 0.00000, 0.750, 0.00000
0.760, 0.00000, 0.770, 0.00000, 0.780, 0.00000, 0.790, 0.00000
0.800, 0.00000, 0.810, 0.00000, 0.820, 0.00000, 0.830, 0.00000
0.840, 0.00000, 0.850, 0.00000, 0.860, 0.00000, 0.870, 0.00000
0.880, 0.00000, 0.890, 0.00000, 0.900, 0.00000, 0.910, 0.00000
0.920, 0.00000, 0.930, 0.00000, 0.940, 0.00000, 0.950, 0.00000
0.960, 0.00000, 0.970, 0.00000, 0.980, 0.00000, 0.990, 0.00000
1.000, 0.00000, 1.010, 0.00000, 1.020, 0.00000, 1.030, 0.00000
1.040, 0.00000, 1.050, 0.00000, 1.060, 0.00000, 1.070, 0.00000
1.080, 0.00000, 1.090, 0.00000, 1.100, 0.00000, 1.110, 0.00000
1.120, 0.00000, 1.130, 0.00000, 1.140, 0.00000, 1.150, 0.00000
1.160, 0.00000, 1.170, 0.00000, 1.180, 0.00000, 1.190, 0.00000
1.200, 0.00000, 1.210, 0.00000, 1.220, 0.00000, 1.230, 0.00000
1.240, 0.00000, 1.250, 0.00000, 1.260, 0.00000, 1.270, 0.00000
1.280, 0.00000, 1.290, 0.00000, 1.300, 0.00000, 1.310, 0.00000
1.320, 0.00000, 1.330, 0.00000, 1.340, 0.00000, 1.350, 0.00000
1.360, 0.00000, 1.370, 0.00000, 1.380, 0.00000, 1.390, 0.00000
1.400, 0.00000, 1.410, 0.00000, 1.420, 0.00000, 1.430, 0.00000
1.440, 0.00000, 1.450, 0.00000, 1.460, 0.00000, 1.470, 0.00000
1.480, 0.00000, 1.490, 0.00000, 1.500, 0.00000, 1.510, 0.00000
1.520, 0.00000, 1.530, 0.00000, 1.540, 0.00000, 1.550, 0.00000
1.560, 0.00000, 1.570, 0.00000, 1.580, 0.00000, 1.590, 0.00000
1.600, 0.00000, 1.610, 0.00000, 1.620, 0.00000, 1.630, 0.00000
1.640, 0.00000, 1.650, 0.00000, 1.660, 0.00000, 1.670, 0.00000
1.680, 0.00000, 1.690, 0.00000, 1.700, 0.00000, 1.710, 0.00000
1.720, 0.00000, 1.730, 0.00000, 1.740, 0.00000, 1.750, 0.00000
1.760, 0.00000, 1.770, 0.00000, 1.780, 0.00000, 1.790, 0.00000
1.800, 0.00000, 1.810, 0.00000, 1.820, 0.00000, 1.830, 0.00000
1.840, 0.00000, 1.850, 0.00000, 1.860, 0.00000, 1.870, 0.00000
1.880, 0.00000, 1.890, 0.00000, 1.900, 0.00000, 1.910, 0.00000
1.920, 0.00000, 1.930, 0.00000, 1.940, 0.00000, 1.950, 0.00000
1.960, 0.00000, 1.970, 0.00000, 1.980, 0.00000, 1.990, 0.00000
2.000, 0.00000, 2.010, 209.54241, 2.020, 419.08482, 2.030, 628.62723
2.040, 838.16965, 2.050, 1047.71206, 2.060, 995.32645, 2.070, 942.94085
2.080, 890.55525, 2.090, 838.16965, 2.100, 785.78404, 2.110, 733.39844
2.120, 681.01284, 2.130, 628.62723, 2.140, 576.24163, 2.150, 523.85603
2.160, 471.47043, 2.170, 419.08482, 2.180, 366.69922, 2.190, 314.31362
2.200, 261.92801, 2.210, 209.54241, 2.220, 157.15681, 2.230, 104.77121
2.240, 52.38560, 2.250, 0.00000, 2.260, 0.00000, 2.270, 0.00000
2.280, 0.00000, 2.290, 0.00000, 2.300, 0.00000, 2.310, 0.00000
2.320, 0.00000, 2.330, 0.00000, 2.340, 0.00000, 2.350, 0.00000
2.360, 0.00000, 2.370, 0.00000, 2.380, 0.00000, 2.390, 0.00000
2.400, 0.00000, 2.410, 0.00000, 2.420, 0.00000, 2.430, 0.00000
2.440, 0.00000, 2.450, 0.00000, 2.460, 0.00000, 2.470, 0.00000
2.480, 0.00000, 2.490, 0.00000, 2.500, 0.00000, 2.510, 0.00000
2.520, 0.00000, 2.530, 0.00000, 2.540, 0.00000, 2.550, 0.00000
2.560, 0.00000, 2.570, 0.00000, 2.580, 0.00000, 2.590, 0.00000
2.600, 0.00000, 2.610, 0.00000, 2.620, 0.00000, 2.630, 0.00000
2.640, 0.00000, 2.650, 0.00000, 2.660, 0.00000, 2.670, 0.00000
2.680, 0.00000, 2.690, 0.00000, 2.700, 0.00000, 2.710, 0.00000
2.720, 0.00000, 2.730, 0.00000, 2.740, 0.00000, 2.750, 0.00000
2.760, 0.00000, 2.770, 0.00000, 2.780, 0.00000, 2.790, 0.00000
2.800, 0.00000, 2.810, 0.00000, 2.820, 0.00000, 2.830, 0.00000
2.840, 0.00000, 2.850, 0.00000, 2.860, 0.00000, 2.870, 0.00000
2.880, 0.00000, 2.890, 0.00000, 2.900, 0.00000, 2.910, 0.00000
2.920, 0.00000, 2.930, 0.00000, 2.940, 0.00000, 2.950, 0.00000
2.960, 0.00000, 2.970, 0.00000, 2.980, 0.00000, 2.990, 0.00000
3.000, 0.00000, 3.010, 0.00000, 3.020, 0.00000, 3.030, 0.00000
3.040, 0.00000, 3.050, 0.00000, 3.060, 0.00000, 3.070, 0.00000
3.080, 0.00000, 3.090, 0.00000, 3.100, 0.00000, 3.110, 0.00000
3.120, 0.00000, 3.130, 0.00000, 3.140, 0.00000, 3.150, 0.00000
3.160, 0.00000, 3.170, 0.00000, 3.180, 0.00000, 3.190, 0.00000
3.200, 0.00000, 3.210, 0.00000, 3.220, 0.00000, 3.230, 0.00000
3.240, 0.00000, 3.250, 0.00000, 3.260, 0.00000, 3.270, 0.00000
3.280, 0.00000, 3.290, 0.00000, 3.300, 0.00000, 3.310, 0.00000
3.320, 0.00000, 3.330, 0.00000, 3.340, 0.00000, 3.350, 0.00000
3.360, 0.00000, 3.370, 0.00000, 3.380, 0.00000, 3.390, 0.00000
3.400, 0.00000, 3.410, 0.00000, 3.420, 0.00000, 3.430, 0.00000
3.440, 0.00000, 3.450, 0.00000, 3.460, 0.00000, 3.470, 0.00000
3.480, 0.00000, 3.490, 0.00000, 3.500, 0.00000, 3.510, 0.00000
3.520, 0.00000, 3.530, 0.00000, 3.540, 0.00000, 3.550, 0.00000
3.560, 0.00000, 3.570, 0.00000, 3.580, 0.00000, 3.590, 0.00000
3.600, 0.00000, 3.610, 0.00000, 3.620, 0.00000, 3.630, 0.00000
3.640, 0.00000, 3.650, 0.00000, 3.660, 0.00000, 3.670, 0.00000
3.680, 0.00000, 3.690, 0.00000, 3.700, 0.00000, 3.710, 0.00000
3.720, 0.00000, 3.730, 0.00000, 3.740, 0.00000, 3.750, 0.00000
3.760, 0.00000, 3.770, 0.00000, 3.780, 0.00000, 3.790, 0.00000
3.800, 0.00000, 3.810, 0.00000, 3.820, 0.00000, 3.830, 0.00000
3.840, 0.00000, 3.850, 0.00000, 3.860, 0.00000, 3.870, 0.00000
3.880, 0.00000, 3.890, 0.00000, 3.900, 0.00000, 3.910, 0.00000
3.920, 0.00000, 3.930, 0.00000, 3.940, 0.00000, 3.950, 0.00000
3.960, 0.00000, 3.970, 0.00000, 3.980, 0.00000, 3.990, 0.00000
4.000, 0.00000, 4.010, 205.54551, 4.020, 411.09102, 4.030, 616.63653
4.040, 822.18204, 4.050, 1027.72754, 4.060, 976.34117, 4.070, 924.95479
4.080, 873.56841, 4.090, 822.18204, 4.100, 770.79566, 4.110, 719.40928
4.120, 668.02290, 4.130, 616.63653, 4.140, 565.25015, 4.150, 513.86377
4.160, 462.47740, 4.170, 411.09102, 4.180, 359.70464, 4.190, 308.31826
4.200, 256.93189, 4.210, 205.54551, 4.220, 154.15913, 4.230, 102.77275
4.240, 51.38638, 4.250, 0.00000, 4.260, 0.00000, 4.270, 0.00000
4.280, 0.00000, 4.290, 0.00000, 4.300, 0.00000, 4.310, 0.00000
4.320, 0.00000, 4.330, 0.00000, 4.340, 0.00000, 4.350, 0.00000
4.360, 0.00000, 4.370, 0.00000, 4.380, 0.00000, 4.390, 0.00000
4.400, 0.00000, 4.410, 0.00000, 4.420, 0.00000, 4.430, 0.00000
4.440, 0.00000, 4.450, 0.00000, 4.460, 0.00000, 4.470, 0.00000
4.480, 0.00000, 4.490, 0.00000, 4.500, 0.00000, 4.510, 0.00000
4.520, 0.00000, 4.530, 0.00000, 4.540, 0.00000, 4.550, 0.00000
4.560, 0.00000, 4.570, 0.00000, 4.580, 0.00000, 4.590, 0.00000
4.600, 0.00000, 4.610, 0.00000, 4.620, 0.00000, 4.630, 0.00000
4.640, 0.00000, 4.650, 0.00000, 4.660, 0.00000, 4.670, 0.00000
4.680, 0.00000, 4.690, 0.00000, 4.700, 0.00000, 4.710, 0.00000
4.720, 0.00000, 4.730, 0.00000, 4.740, 0.00000, 4.750, 0.00000
4.760, 0.00000, 4.770, 0.00000, 4.780, 0.00000, 4.790, 0.00000
4.800, 0.00000, 4.810, 0.00000, 4.820, 0.00000, 4.830, 0.00000
4.840, 0.00000, 4.850, 0.00000, 4.860, 0.00000, 4.870, 0.00000
4.880, 0.00000, 4.890, 0.00000, 4.900, 0.00000, 4.910, 0.00000
4.920, 0.00000, 4.930, 0.00000, 4.940, 0.00000, 4.950, 0.00000
4.960, 0.00000, 4.970, 0.00000, 4.980, 0.00000, 4.990, 0.00000
5.000, 0.00000, 5.010, 0.00000, 5.020, 0.00000, 5.030, 0.00000
5.040, 0.00000, 5.050, 0.00000, 5.060, 0.00000, 5.070, 0.00000
5.080, 0.00000, 5.090, 0.00000, 5.100, 0.00000, 5.110, 0.00000
5.120, 0.00000, 5.130, 0.00000, 5.140, 0.00000, 5.150, 0.00000
5.160, 0.00000, 5.170, 0.00000, 5.180, 0.00000, 5.190, 0.00000
5.200, 0.00000, 5.210, 0.00000, 5.220, 0.00000, 5.230, 0.00000
5.240, 0.00000, 5.250, 0.00000, 5.260, 0.00000, 5.270, 0.00000
5.280, 0.00000, 5.290, 0.00000, 5.300, 0.00000, 5.310, 0.00000
5.320, 0.00000, 5.330, 0.00000, 5.340, 0.00000, 5.350, 0.00000
5.360, 0.00000, 5.370, 0.00000, 5.380, 0.00000, 5.390, 0.00000
5.400, 0.00000, 5.410, 0.00000, 5.420, 0.00000, 5.430, 0.00000
5.440, 0.00000, 5.450, 0.00000, 5.460, 0.00000, 5.470, 0.00000
5.480, 0.00000, 5.490, 0.00000, 5.500, 0.00000, 5.510, 0.00000
5.520, 0.00000, 5.530, 0.00000, 5.540, 0.00000, 5.550, 0.00000
5.560, 0.00000, 5.570, 0.00000, 5.580, 0.00000, 5.590, 0.00000
5.600, 0.00000, 5.610, 0.00000, 5.620, 0.00000, 5.630, 0.00000
5.640, 0.00000, 5.650, 0.00000, 5.660, 0.00000, 5.670, 0.00000
5.680, 0.00000, 5.690, 0.00000, 5.700, 0.00000, 5.710, 0.00000
5.720, 0.00000, 5.730, 0.00000, 5.740, 0.00000, 5.750, 0.00000
5.760, 0.00000, 5.770, 0.00000, 5.780, 0.00000, 5.790, 0.00000
5.800, 0.00000, 5.810, 0.00000, 5.820, 0.00000, 5.830, 0.00000
5.840, 0.00000, 5.850, 0.00000, 5.860, 0.00000, 5.870, 0.00000
5.880, 0.00000, 5.890, 0.00000, 5.900, 0.00000, 5.910, 0.00000
5.920, 0.00000, 5.930, 0.00000, 5.940, 0.00000, 5.950, 0.00000
5.960, 0.00000, 5.970, 0.00000, 5.980, 0.00000, 5.990, 0.00000
6.000, 0.00000, 6.010, 202.24670, 6.020, 404.49340, 6.030, 606.74010
6.040, 808.98680, 6.050, 1011.23350, 6.060, 960.67182, 6.070, 910.11015
6.080, 859.54847, 6.090, 808.98680, 6.100, 758.42512, 6.110, 707.86345
6.120, 657.30177, 6.130, 606.74010, 6.140, 556.17842, 6.150, 505.61675
6.160, 455.05507, 6.170, 404.49340, 6.180, 353.93172, 6.190, 303.37005
6.200, 252.80837, 6.210, 202.24670, 6.220, 151.68502, 6.230, 101.12335
6.240, 50.56167, 6.250, 0.00000, 6.260, 0.00000, 6.270, 0.00000
6.280, 0.00000, 6.290, 0.00000, 6.300, 0.00000, 6.310, 0.00000
6.320, 0.00000, 6.330, 0.00000, 6.340, 0.00000, 6.350, 0.00000
6.360, 0.00000, 6.370, 0.00000, 6.380, 0.00000, 6.390, 0.00000
6.400, 0.00000, 6.410, 0.00000, 6.420, 0.00000, 6.430, 0.00000
6.440, 0.00000, 6.450, 0.00000, 6.460, 0.00000, 6.470, 0.00000
6.480, 0.00000, 6.490, 0.00000, 6.500, 0.00000, 6.510, 0.00000
6.520, 0.00000, 6.530, 0.00000, 6.540, 0.00000, 6.550, 0.00000
6.560, 0.00000, 6.570, 0.00000, 6.580, 0.00000, 6.590, 0.00000
6.600, 0.00000, 6.610, 0.00000, 6.620, 0.00000, 6.630, 0.00000
6.640, 0.00000, 6.650, 0.00000, 6.660, 0.00000, 6.670, 0.00000
6.680, 0.00000, 6.690, 0.00000, 6.700, 0.00000, 6.710, 0.00000
6.720, 0.00000, 6.730, 0.00000, 6.740, 0.00000, 6.750, 0.00000
6.760, 0.00000, 6.770, 0.00000, 6.780, 0.00000, 6.790, 0.00000
6.800, 0.00000, 6.810, 0.00000, 6.820, 0.00000, 6.830, 0.00000
6.840, 0.00000, 6.850, 0.00000, 6.860, 0.00000, 6.870, 0.00000
6.880, 0.00000, 6.890, 0.00000, 6.900, 0.00000, 6.910, 0.00000
6.920, 0.00000, 6.930, 0.00000, 6.940, 0.00000, 6.950, 0.00000
6.960, 0.00000, 6.970, 0.00000, 6.980, 0.00000, 6.990, 0.00000
7.000, 0.00000, 7.010, 0.00000, 7.020, 0.00000, 7.030, 0.00000
7.040, 0.00000, 7.050, 0.00000, 7.060, 0.00000, 7.070, 0.00000
7.080, 0.00000, 7.090, 0.00000, 7.100, 0.00000, 7.110, 0.00000
7.120, 0.00000, 7.130, 0.00000, 7.140, 0.00000, 7.150, 0.00000
7.160, 0.00000, 7.170, 0.00000, 7.180, 0.00000, 7.190, 0.00000
7.200, 0.00000, 7.210, 0.00000, 7.220, 0.00000, 7.230, 0.00000
7.240, 0.00000, 7.250, 0.00000, 7.260, 0.00000, 7.270, 0.00000
7.280, 0.00000, 7.290, 0.00000, 7.300, 0.00000, 7.310, 0.00000
7.320, 0.00000, 7.330, 0.00000, 7.340, 0.00000, 7.350, 0.00000
7.360, 0.00000, 7.370, 0.00000, 7.380, 0.00000, 7.390, 0.00000
7.400, 0.00000, 7.410, 0.00000, 7.420, 0.00000, 7.430, 0.00000
7.440, 0.00000, 7.450, 0.00000, 7.460, 0.00000, 7.470, 0.00000
7.480, 0.00000, 7.490, 0.00000, 7.500, 0.00000, 7.510, 0.00000
7.520, 0.00000, 7.530, 0.00000, 7.540, 0.00000, 7.550, 0.00000
7.560, 0.00000, 7.570, 0.00000, 7.580, 0.00000, 7.590, 0.00000
7.600, 0.00000, 7.610, 0.00000, 7.620, 0.00000, 7.630, 0.00000
7.640, 0.00000, 7.650, 0.00000, 7.660, 0.00000, 7.670, 0.00000
7.680, 0.00000, 7.690, 0.00000, 7.700, 0.00000, 7.710, 0.00000
7.720, 0.00000, 7.730, 0.00000, 7.740, 0.00000, 7.750, 0.00000
7.760, 0.00000, 7.770, 0.00000, 7.780, 0.00000, 7.790, 0.00000
7.800, 0.00000, 7.810, 0.00000, 7.820, 0.00000, 7.830, 0.00000
7.840, 0.00000, 7.850, 0.00000, 7.860, 0.00000, 7.870, 0.00000
7.880, 0.00000, 7.890, 0.00000, 7.900, 0.00000, 7.910, 0.00000
7.920, 0.00000, 7.930, 0.00000, 7.940, 0.00000, 7.950, 0.00000
7.960, 0.00000, 7.970, 0.00000, 7.980, 0.00000, 7.990, 0.00000
8.000, 0.00000, 8.010, 199.40088, 8.020, 398.80176, 8.030, 598.20264
8.040, 797.60352, 8.050, 997.00440, 8.060, 947.15418, 8.070, 897.30396
8.080, 847.45374, 8.090, 797.60352, 8.100, 747.75330, 8.110, 697.90308
8.120, 648.05286, 8.130, 598.20264, 8.140, 548.35242, 8.150, 498.50220
8.160, 448.65198, 8.170, 398.80176, 8.180, 348.95154, 8.190, 299.10132
8.200, 249.25110, 8.210, 199.40088, 8.220, 149.55066, 8.230, 99.70044
8.240, 49.85022, 8.250, 0.00000, 8.260, 0.00000, 8.270, 0.00000
8.280, 0.00000, 8.290, 0.00000, 8.300, 0.00000, 8.310, 0.00000
8.320, 0.00000, 8.330, 0.00000, 8.340, 0.00000, 8.350, 0.00000
8.360, 0.00000, 8.370, 0.00000, 8.380, 0.00000, 8.390, 0.00000
8.400, 0.00000, 8.410, 0.00000, 8.420, 0.00000, 8.430, 0.00000
8.440, 0.00000, 8.450, 0.00000, 8.460, 0.00000, 8.470, 0.00000
8.480, 0.00000, 8.490, 0.00000, 8.500, 0.00000, 8.510, 0.00000
8.520, 0.00000, 8.530, 0.00000, 8.540, 0.00000, 8.550, 0.00000
8.560, 0.00000, 8.570, 0.00000, 8.580, 0.00000, 8.590, 0.00000
8.600, 0.00000, 8.610, 0.00000, 8.620, 0.00000, 8.630, 0.00000
8.640, 0.00000, 8.650, 0.00000, 8.660, 0.00000, 8.670, 0.00000
8.680, 0.00000, 8.690, 0.00000, 8.700, 0.00000, 8.710, 0.00000
8.720, 0.00000, 8.730, 0.00000, 8.740, 0.00000, 8.750, 0.00000
8.760, 0.00000, 8.770, 0.00000, 8.780, 0.00000, 8.790, 0.00000
8.800, 0.00000, 8.810, 0.00000, 8.820, 0.00000, 8.830, 0.00000
8.840, 0.00000, 8.850, 0.00000, 8.860, 0.00000, 8.870, 0.00000
8.880, 0.00000, 8.890, 0.00000, 8.900, 0.00000, 8.910, 0.00000
8.920, 0.00000, 8.930, 0.00000, 8.940, 0.00000, 8.950, 0.00000
8.960, 0.00000, 8.970, 0.00000, 8.980, 0.00000, 8.990, 0.00000
9.000, 0.00000, 9.010, 0.00000, 9.020, 0.00000, 9.030, 0.00000
9.040, 0.00000, 9.050, 0.00000, 9.060, 0.00000, 9.070, 0.00000
9.080, 0.00000, 9.090, 0.00000, 9.100, 0.00000, 9.110, 0.00000
9.120, 0.00000, 9.130, 0.00000, 9.140, 0.00000, 9.150, 0.00000
9.160, 0.00000, 9.170, 0.00000, 9.180, 0.00000, 9.190, 0.00000
9.200, 0.00000, 9.210, 0.00000, 9.220, 0.00000, 9.230, 0.00000
9.240, 0.00000, 9.250, 0.00000, 9.260, 0.00000, 9.270, 0.00000
9.280, 0.00000, 9.290, 0.00000, 9.300, 0.00000, 9.310, 0.00000
9.320, 0.00000, 9.330, 0.00000, 9.340, 0.00000, 9.350, 0.00000
9.360, 0.00000, 9.370, 0.00000, 9.380, 0.00000, 9.390, 0.00000
9.400, 0.00000, 9.410, 0.00000, 9.420, 0.00000, 9.430, 0.00000
9.440, 0.00000, 9.450, 0.00000, 9.460, 0.00000, 9.470, 0.00000
9.480, 0.00000, 9.490, 0.00000, 9.500, 0.00000, 9.510, 0.00000
9.520, 0.00000, 9.530, 0.00000, 9.540, 0.00000, 9.550, 0.00000
9.560, 0.00000, 9.570, 0.00000, 9.580, 0.00000, 9.590, 0.00000
9.600, 0.00000, 9.610, 0.00000, 9.620, 0.00000, 9.630, 0.00000
9.640, 0.00000, 9.650, 0.00000, 9.660, 0.00000, 9.670, 0.00000
9.680, 0.00000, 9.690, 0.00000, 9.700, 0.00000, 9.710, 0.00000
9.720, 0.00000, 9.730, 0.00000, 9.740, 0.00000, 9.750, 0.00000
9.760, 0.00000, 9.770, 0.00000, 9.780, 0.00000, 9.790, 0.00000
9.800, 0.00000, 9.810, 0.00000, 9.820, 0.00000, 9.830, 0.00000
9.840, 0.00000, 9.850, 0.00000, 9.860, 0.00000, 9.870, 0.00000
9.880, 0.00000, 9.890, 0.00000, 9.900, 0.00000, 9.910, 0.00000
9.920, 0.00000, 9.930, 0.00000, 9.940, 0.00000, 9.950, 0.00000
9.960, 0.00000, 9.970, 0.00000, 9.980, 0.00000, 9.990, 0.00000
*AMPLITUDE, NAME=ROW19
0.000, 0.00000, 0.010, 95.46125, 0.020, 190.92251, 0.030, 286.38376
0.040, 381.84501, 0.050, 477.30627, 0.060, 453.44095, 0.070, 429.57564
0.080, 405.71033, 0.090, 381.84501, 0.100, 357.97970, 0.110, 334.11439
0.120, 310.24907, 0.130, 286.38376, 0.140, 262.51845, 0.150, 238.65313
0.160, 214.78782, 0.170, 190.92251, 0.180, 167.05719, 0.190, 143.19188
0.200, 119.32657, 0.210, 95.46125, 0.220, 71.59594, 0.230, 47.73063
0.240, 23.86531, 0.250, 0.00000, 0.260, 0.00000, 0.270, 0.00000
0.280, 0.00000, 0.290, 0.00000, 0.300, 0.00000, 0.310, 0.00000
0.320, 0.00000, 0.330, 0.00000, 0.340, 0.00000, 0.350, 0.00000
0.360, 0.00000, 0.370, 0.00000, 0.380, 0.00000, 0.390, 0.00000
0.400, 0.00000, 0.410, 0.00000, 0.420, 0.00000, 0.430, 0.00000
0.440, 0.00000, 0.450, 0.00000, 0.460, 0.00000, 0.470, 0.00000
0.480, 0.00000, 0.490, 0.00000, 0.500, 0.00000, 0.510, 0.00000
0.520, 0.00000, 0.530, 0.00000, 0.540, 0.00000, 0.550, 0.00000
0.560, 0.00000, 0.570, 0.00000, 0.580, 0.00000, 0.590, 0.00000
0.600, 0.00000, 0.610, 0.00000, 0.620, 0.00000, 0.630, 0.00000
0.640, 0.00000, 0.650, 0.00000, 0.660, 0.00000, 0.670, 0.00000
0.680, 0.00000, 0.690, 0.00000, 0.700, 0.00000, 0.710, 0.00000
0.720, 0.00000, 0.730, 0.00000, 0.740, 0.00000, 0.750, 0.00000
0.760, 0.00000, 0.770, 0.00000, 0.780, 0.00000, 0.790, 0.00000
0.800, 0.00000, 0.810, 0.00000, 0.820, 0.00000, 0.830, 0.00000
0.840, 0.00000, 0.850, 0.00000, 0.860, 0.00000, 0.870, 0.00000
0.880, 0.00000, 0.890, 0.00000, 0.900, 0.00000, 0.910, 0.00000
0.920, 0.00000, 0.930, 0.00000, 0.940, 0.00000, 0.950, 0.00000
0.960, 0.00000, 0.970, 0.00000, 0.980, 0.00000, 0.990, 0.00000
1.000, 0.00000, 1.010, 0.00000, 1.020, 0.00000, 1.030, 0.00000
1.040, 0.00000, 1.050, 0.00000, 1.060, 0.00000, 1.070, 0.00000
1.080, 0.00000, 1.090, 0.00000, 1.100, 0.00000, 1.110, 0.00000
1.120, 0.00000, 1.130, 0.00000, 1.140, 0.00000, 1.150, 0.00000
1.160, 0.00000, 1.170, 0.00000, 1.180, 0.00000, 1.190, 0.00000
1.200, 0.00000, 1.210, 0.00000, 1.220, 0.00000, 1.230, 0.00000
1.240, 0.00000, 1.250, 0.00000, 1.260, 0.00000, 1.270, 0.00000
1.280, 0.00000, 1.290, 0.00000, 1.300, 0.00000, 1.310, 0.00000
1.320, 0.00000, 1.330, 0.00000, 1.340, 0.00000, 1.350, 0.00000
1.360, 0.00000, 1.370, 0.00000, 1.380, 0.00000, 1.390, 0.00000
1.400, 0.00000, 1.410, 0.00000, 1.420, 0.00000, 1.430, 0.00000
1.440, 0.00000, 1.450, 0.00000, 1.460, 0.00000, 1.470, 0.00000
1.480, 0.00000, 1.490, 0.00000, 1.500, 0.00000, 1.510, 0.00000
1.520, 0.00000, 1.530, 0.00000, 1.540, 0.00000, 1.550, 0.00000
1.560, 0.00000, 1.570, 0.00000, 1.580, 0.00000, 1.590, 0.00000
1.600, 0.00000, 1.610, 0.00000, 1.620, 0.00000, 1.630, 0.00000
1.640, 0.00000, 1.650, 0.00000, 1.660, 0.00000, 1.670, 0.00000
1.680, 0.00000, 1.690, 0.00000, 1.700, 0.00000, 1.710, 0.00000
1.720, 0.00000, 1.730, 0.00000, 1.740, 0.00000, 1.750, 0.00000
1.760, 0.00000, 1.770, 0.00000, 1.780, 0.00000, 1.790, 0.00000
1.800, 0.00000, 1.810, 0.00000, 1.820, 0.00000, 1.830, 0.00000
1.840, 0.00000, 1.850, 0.00000, 1.860, 0.00000, 1.870, 0.00000
1.880, 0.00000, 1.890, 0.00000, 1.900, 0.00000, 1.910, 0.00000
1.920, 0.00000, 1.930, 0.00000, 1.940, 0.00000, 1.950, 0.00000
1.960, 0.00000, 1.970, 0.00000, 1.980, 0.00000, 1.990, 0.00000
2.000, 0.00000, 2.010, 93.11619, 2.020, 186.23237, 2.030, 279.34856
2.040, 372.46475, 2.050, 465.58093, 2.060, 442.30189, 2.070, 419.02284
2.080, 395.74379, 2.090, 372.46475, 2.100, 349.18570, 2.110, 325.90665
2.120, 302.62761, 2.130, 279.34856, 2.140, 256.06951, 2.150, 232.79047
2.160, 209.51142, 2.170, 186.23237, 2.180, 162.95333, 2.190, 139.67428
2.200, 116.39523, 2.210, 93.11619, 2.220, 69.83714, 2.230, 46.55809
2.240, 23.27905, 2.250, 0.00000, 2.260, 0.00000, 2.270, 0.00000
2.280, 0.00000, 2.290, 0.00000, 2.300, 0.00000, 2.310, 0.00000
2.320, 0.00000, 2.330, 0.00000, 2.340, 0.00000, 2.350, 0.00000
2.360, 0.00000, 2.370, 0.00000, 2.380, 0.00000, 2.390, 0.00000
2.400, 0.00000, 2.410, 0.00000, 2.420, 0.00000, 2.430, 0.00000
2.440, 0.00000, 2.450, 0.00000, 2.460, 0.00000, 2.470, 0.00000
2.480, 0.00000, 2.490, 0.00000, 2.500, 0.00000, 2.510, 0.00000
2.520, 0.00000, 2.530, 0.00000, 2.540, 0.00000, 2.550, 0.00000
2.560, 0.00000, 2.570, 0.00000, 2.580, 0.00000, 2.590, 0.00000
2.600, 0.00000, 2.610, 0.00000, 2.620, 0.00000, 2.630, 0.00000
2.640, 0.00000, 2.650, 0.00000, 2.660, 0.00000, 2.670, 0.00000
2.680, 0.00000, 2.690, 0.00000, 2.700, 0.00000, 2.710, 0.00000
2.720, 0.00000, 2.730, 0.00000, 2.740, 0.00000, 2.750, 0.00000
2.760, 0.00000, 2.770, 0.00000, 2.780, 0.00000, 2.790, 0.00000
2.800, 0.00000, 2.810, 0.00000, 2.820, 0.00000, 2.830, 0.00000
2.840, 0.00000, 2.850, 0.00000, 2.860, 0.00000, 2.870, 0.00000
2.880, 0.00000, 2.890, 0.00000, 2.900, 0.00000, 2.910, 0.00000
2.920, 0.00000, 2.930, 0.00000, 2.940, 0.00000, 2.950, 0.00000
2.960, 0.00000, 2.970, 0.00000, 2.980, 0.00000, 2.990, 0.00000
3.000, 0.00000, 3.010, 0.00000, 3.020, 0.00000, 3.030, 0.00000
3.040, 0.00000, 3.050, 0.00000, 3.060, 0.00000, 3.070, 0.00000
3.080, 0.00000, 3.090, 0.00000, 3.100, 0.00000, 3.110, 0.00000
3.120, 0.00000, 3.130, 0.00000, 3.140, 0.00000, 3.150, 0.00000
3.160, 0.00000, 3.170, 0.00000, 3.180, 0.00000, 3.190, 0.00000
3.200, 0.00000, 3.210, 0.00000, 3.220, 0.00000, 3.230, 0.00000
3.240, 0.00000, 3.250, 0.00000, 3.260, 0.00000, 3.270, 0.00000
3.280, 0.00000, 3.290, 0.00000, 3.300, 0.00000, 3.310, 0.00000
3.320, 0.00000, 3.330, 0.00000, 3.340, 0.00000, 3.350, 0.00000
3.360, 0.00000, 3.370, 0.00000, 3.380, 0.00000, 3.390, 0.00000
3.400, 0.00000, 3.410, 0.00000, 3.420, 0.00000, 3.430, 0.00000
3.440, 0.00000, 3.450, 0.00000, 3.460, 0.00000, 3.470, 0.00000
3.480, 0.00000, 3.490, 0.00000, 3.500, 0.00000, 3.510, 0.00000
3.520, 0.00000, 3.530, 0.00000, 3.540, 0.00000, 3.550, 0.00000
3.560, 0.00000, 3.570, 0.00000, 3.580, 0.00000, 3.590, 0.00000
3.600, 0.00000, 3.610, 0.00000, 3.620, 0.00000, 3.630, 0.00000
3.640, 0.00000, 3.650, 0.00000, 3.660, 0.00000, 3.670, 0.00000
3.680, 0.00000, 3.690, 0.00000, 3.700, 0.00000, 3.710, 0.00000
3.720, 0.00000, 3.730, 0.00000, 3.740, 0.00000, 3.750, 0.00000
3.760, 0.00000, 3.770, 0.00000, 3.780, 0.00000, 3.790, 0.00000
3.800, 0.00000, 3.810, 0.00000, 3.820, 0.00000, 3.830, 0.00000
3.840, 0.00000, 3.850, 0.00000, 3.860, 0.00000, 3.870, 0.00000
3.880, 0.00000, 3.890, 0.00000, 3.900, 0.00000, 3.910, 0.00000
3.920, 0.00000, 3.930, 0.00000, 3.940, 0.00000, 3.950, 0.00000
3.960, 0.00000, 3.970, 0.00000, 3.980, 0.00000, 3.990, 0.00000
4.000, 0.00000, 4.010, 91.34005, 4.020, 182.68010, 4.030, 274.02014
4.040, 365.36019, 4.050, 456.70024, 4.060, 433.86523, 4.070, 411.03022
4.080, 388.19520, 4.090, 365.36019, 4.100, 342.52518, 4.110, 319.69017
4.120, 296.85516, 4.130, 274.02014, 4.140, 251.18513, 4.150, 228.35012
4.160, 205.51511, 4.170, 182.68010, 4.180, 159.84508, 4.190, 137.01007
4.200, 114.17506, 4.210, 91.34005, 4.220, 68.50504, 4.230, 45.67002
4.240, 22.83501, 4.250, 0.00000, 4.260, 0.00000, 4.270, 0.00000
4.280, 0.00000, 4.290, 0.00000, 4.300, 0.00000, 4.310, 0.00000
4.320, 0.00000, 4.330, 0.00000, 4.340, 0.00000, 4.350, 0.00000
4.360, 0.00000, 4.370, 0.00000, 4.380, 0.00000, 4.390, 0.00000
4.400, 0.00000, 4.410, 0.00000, 4.420, 0.00000, 4.430, 0.00000
4.440, 0.00000, 4.450, 0.00000, 4.460, 0.00000, 4.470, 0.00000
4.480, 0.00000, 4.490, 0.00000, 4.500, 0.00000, 4.510, 0.00000
4.520, 0.00000, 4.530, 0.00000, 4.540, 0.00000, 4.550, 0.00000
4.560, 0.00000, 4.570, 0.00000, 4.580, 0.00000, 4.590, 0.00000
4.600, 0.00000, 4.610, 0.00000, 4.620, 0.00000, 4.630, 0.00000
4.640, 0.00000, 4.650, 0.00000, 4.660, 0.00000, 4.670, 0.00000
4.680, 0.00000, 4.690, 0.00000, 4.700, 0.00000, 4.710, 0.00000
4.720, 0.00000, 4.730, 0.00000, 4.740, 0.00000, 4.750, 0.00000
4.760, 0.00000, 4.770, 0.00000, 4.780, 0.00000, 4.790, 0.00000
4.800, 0.00000, 4.810, 0.00000, 4.820, 0.00000, 4.830, 0.00000
4.840, 0.00000, 4.850, 0.00000, 4.860, 0.00000, 4.870, 0.00000
4.880, 0.00000, 4.890, 0.00000, 4.900, 0.00000, 4.910, 0.00000
4.920, 0.00000, 4.930, 0.00000, 4.940, 0.00000, 4.950, 0.00000
4.960, 0.00000, 4.970, 0.00000, 4.980, 0.00000, 4.990, 0.00000
5.000, 0.00000, 5.010, 0.00000, 5.020, 0.00000, 5.030, 0.00000
5.040, 0.00000, 5.050, 0.00000, 5.060, 0.00000, 5.070, 0.00000
5.080, 0.00000, 5.090, 0.00000, 5.100, 0.00000, 5.110, 0.00000
5.120, 0.00000, 5.130, 0.00000, 5.140, 0.00000, 5.150, 0.00000
5.160, 0.00000, 5.170, 0.00000, 5.180, 0.00000, 5.190, 0.00000
5.200, 0.00000, 5.210, 0.00000, 5.220, 0.00000, 5.230, 0.00000
5.240, 0.00000, 5.250, 0.00000, 5.260, 0.00000, 5.270, 0.00000
5.280, 0.00000, 5.290, 0.00000, 5.300, 0.00000, 5.310, 0.00000
5.320, 0.00000, 5.330, 0.00000, 5.340, 0.00000, 5.350, 0.00000
5.360, 0.00000, 5.370, 0.00000, 5.380, 0.00000, 5.390, 0.00000
5.400, 0.00000, 5.410, 0.00000, 5.420, 0.00000, 5.430, 0.00000
5.440, 0.00000, 5.450, 0.00000, 5.460, 0.00000, 5.470, 0.00000
5.480, 0.00000, 5.490, 0.00000, 5.500, 0.00000, 5.510, 0.00000
5.520, 0.00000, 5.530, 0.00000, 5.540, 0.00000, 5.550, 0.00000
5.560, 0.00000, 5.570, 0.00000, 5.580, 0.00000, 5.590, 0.00000
5.600, 0.00000, 5.610, 0.00000, 5.620, 0.00000, 5.630, 0.00000
5.640, 0.00000, 5.650, 0.00000, 5.660, 0.00000, 5.670, 0.00000
5.680, 0.00000, 5.690, 0.00000, 5.700, 0.00000, 5.710, 0.00000
5.720, 0.00000, 5.730, 0.00000, 5.740, 0.00000, 5.750, 0.00000
5.760, 0.00000, 5.770, 0.00000, 5.780, 0.00000, 5.790, 0.00000
5.800, 0.00000, 5.810, 0.00000, 5.820, 0.00000, 5.830, 0.00000
5.840, 0.00000, 5.850, 0.00000, 5.860, 0.00000, 5.870, 0.00000
5.880, 0.00000, 5.890, 0.00000, 5.900, 0.00000, 5.910, 0.00000
5.920, 0.00000, 5.930, 0.00000, 5.940, 0.00000, 5.950, 0.00000
5.960, 0.00000, 5.970, 0.00000, 5.980, 0.00000, 5.990, 0.00000
6.000, 0.00000, 6.010, 89.87413, 6.020, 179.74825, 6.030, 269.62238
6.040, 359.49651, 6.050, 449.37064, 6.060, 426.90210, 6.070, 404.43357
6.080, 381.96504, 6.090, 359.49651, 6.100, 337.02798, 6.110, 314.55944
6.120, 292.09091, 6.130, 269.62238, 6.140, 247.15385, 6.150, 224.68532
6.160, 202.21679, 6.170, 179.74825, 6.180, 157.27972, 6.190, 134.81119
6.200, 112.34266, 6.210, 89.87413, 6.220, 67.40560, 6.230, 44.93706
6.240, 22.46853, 6.250, 0.00000, 6.260, 0.00000, 6.270, 0.00000
6.280, 0.00000, 6.290, 0.00000, 6.300, 0.00000, 6.310, 0.00000
6.320, 0.00000, 6.330, 0.00000, 6.340, 0.00000, 6.350, 0.00000
6.360, 0.00000, 6.370, 0.00000, 6.380, 0.00000, 6.390, 0.00000
6.400, 0.00000, 6.410, 0.00000, 6.420, 0.00000, 6.430, 0.00000
6.440, 0.00000, 6.450, 0.00000, 6.460, 0.00000, 6.470, 0.00000
6.480, 0.00000, 6.490, 0.00000, 6.500, 0.00000, 6.510, 0.00000
6.520, 0.00000, 6.530, 0.00000, 6.540, 0.00000, 6.550, 0.00000
6.560, 0.00000, 6.570, 0.00000, 6.580, 0.00000, 6.590, 0.00000
6.600, 0.00000, 6.610, 0.00000, 6.620, 0.00000, 6.630, 0.00000
6.640, 0.00000, 6.650, 0.00000, 6.660, 0.00000, 6.670, 0.00000
6.680, 0.00000, 6.690, 0.00000, 6.700, 0.00000, 6.710, 0.00000
6.720, 0.00000, 6.730, 0.00000, 6.740, 0.00000, 6.750, 0.00000
6.760, 0.00000, 6.770, 0.00000, 6.780, 0.00000, 6.790, 0.00000
6.800, 0.00000, 6.810, 0.00000, 6.820, 0.00000, 6.830, 0.00000
6.840, 0.00000, 6.850, 0.00000, 6.860, 0.00000, 6.870, 0.00000
6.880, 0.00000, 6.890, 0.00000, 6.900, 0.00000, 6.910, 0.00000
6.920, 0.00000, 6.930, 0.00000, 6.940, 0.00000, 6.950, 0.00000
6.960, 0.00000, 6.970, 0.00000, 6.980, 0.00000, 6.990, 0.00000
7.000, 0.00000, 7.010, 0.00000, 7.020, 0.00000, 7.030, 0.00000
7.040, 0.00000, 7.050, 0.00000, 7.060, 0.00000, 7.070, 0.00000
7.080, 0.00000, 7.090, 0.00000, 7.100, 0.00000, 7.110, 0.00000
7.120, 0.00000, 7.130, 0.00000, 7.140, 0.00000, 7.150, 0.00000
7.160, 0.00000, 7.170, 0.00000, 7.180, 0.00000, 7.190, 0.00000
7.200, 0.00000, 7.210, 0.00000, 7.220, 0.00000, 7.230, 0.00000
7.240, 0.00000, 7.250, 0.00000, 7.260, 0.00000, 7.270, 0.00000
7.280, 0.00000, 7.290, 0.00000, 7.300, 0.00000, 7.310, 0.00000
7.320, 0.00000, 7.330, 0.00000, 7.340, 0.00000, 7.350, 0.00000
7.360, 0.00000, 7.370, 0.00000, 7.380, 0.00000, 7.390, 0.00000
7.400, 0.00000, 7.410, 0.00000, 7.420, 0.00000, 7.430, 0.00000
7.440, 0.00000, 7.450, 0.00000, 7.460, 0.00000, 7.470, 0.00000
7.480, 0.00000, 7.490, 0.00000, 7.500, 0.00000, 7.510, 0.00000
7.520, 0.00000, 7.530, 0.00000, 7.540, 0.00000, 7.550, 0.00000
7.560, 0.00000, 7.570, 0.00000, 7.580, 0.00000, 7.590, 0.00000
7.600, 0.00000, 7.610, 0.00000, 7.620, 0.00000, 7.630, 0.00000
7.640, 0.00000, 7.650, 0.00000, 7.660, 0.00000, 7.670, 0.00000
7.680, 0.00000, 7.690, 0.00000, 7.700, 0.00000, 7.710, 0.00000
7.720, 0.00000, 7.730, 0.00000, 7.740, 0.00000, 7.750, 0.00000
7.760, 0.00000, 7.770, 0.00000, 7.780, 0.00000, 7.790, 0.00000
7.800, 0.00000, 7.810, 0.00000, 7.820, 0.00000, 7.830, 0.00000
7.840, 0.00000, 7.850, 0.00000, 7.860, 0.00000, 7.870, 0.00000
7.880, 0.00000, 7.890, 0.00000, 7.900, 0.00000, 7.910, 0.00000
7.920, 0.00000, 7.930, 0.00000, 7.940, 0.00000, 7.950, 0.00000
7.960, 0.00000, 7.970, 0.00000, 7.980, 0.00000, 7.990, 0.00000
8.000, 0.00000, 8.010, 88.60951, 8.020, 177.21901, 8.030, 265.82852
8.040, 354.43802, 8.050, 443.04753, 8.060, 420.89515, 8.070, 398.74278
8.080, 376.59040, 8.090, 354.43802, 8.100, 332.28565, 8.110, 310.13327
8.120, 287.98089, 8.130, 265.82852, 8.140, 243.67614, 8.150, 221.52376
8.160, 199.37139, 8.170, 177.21901, 8.180, 155.06664, 8.190, 132.91426
8.200, 110.76188, 8.210, 88.60951, 8.220, 66.45713, 8.230, 44.30475
8.240, 22.15238, 8.250, 0.00000, 8.260, 0.00000, 8.270, 0.00000
8.280, 0.00000, 8.290, 0.00000, 8.300, 0.00000, 8.310, 0.00000
8.320, 0.00000, 8.330, 0.00000, 8.340, 0.00000, 8.350, 0.00000
8.360, 0.00000, 8.370, 0.00000, 8.380, 0.00000, 8.390, 0.00000
8.400, 0.00000, 8.410, 0.00000, 8.420, 0.00000, 8.430, 0.00000
8.440, 0.00000, 8.450, 0.00000, 8.460, 0.00000, 8.470, 0.00000
8.480, 0.00000, 8.490, 0.00000, 8.500, 0.00000, 8.510, 0.00000
8.520, 0.00000, 8.530, 0.00000, 8.540, 0.00000, 8.550, 0.00000
8.560, 0.00000, 8.570, 0.00000, 8.580, 0.00000, 8.590, 0.00000
8.600, 0.00000, 8.610, 0.00000, 8.620, 0.00000, 8.630, 0.00000
8.640, 0.00000, 8.650, 0.00000, 8.660, 0.00000, 8.670, 0.00000
8.680, 0.00000, 8.690, 0.00000, 8.700, 0.00000, 8.710, 0.00000
8.720, 0.00000, 8.730, 0.00000, 8.740, 0.00000, 8.750, 0.00000
8.760, 0.00000, 8.770, 0.00000, 8.780, 0.00000, 8.790, 0.00000
8.800, 0.00000, 8.810, 0.00000, 8.820, 0.00000, 8.830, 0.00000
8.840, 0.00000, 8.850, 0.00000, 8.860, 0.00000, 8.870, 0.00000
8.880, 0.00000, 8.890, 0.00000, 8.900, 0.00000, 8.910, 0.00000
8.920, 0.00000, 8.930, 0.00000, 8.940, 0.00000, 8.950, 0.00000
8.960, 0.00000, 8.970, 0.00000, 8.980, 0.00000, 8.990, 0.00000
9.000, 0.00000, 9.010, 0.00000, 9.020, 0.00000, 9.030, 0.00000
9.040, 0.00000, 9.050, 0.00000, 9.060, 0.00000, 9.070, 0.00000
9.080, 0.00000, 9.090, 0.00000, 9.100, 0.00000, 9.110, 0.00000
9.120, 0.00000, 9.130, 0.00000, 9.140, 0.00000, 9.150, 0.00000
9.160, 0.00000, 9.170, 0.00000, 9.180, 0.00000, 9.190, 0.00000
9.200, 0.00000, 9.210, 0.00000, 9.220, 0.00000, 9.230, 0.00000
9.240, 0.00000, 9.250, 0.00000, 9.260, 0.00000, 9.270, 0.00000
9.280, 0.00000, 9.290, 0.00000, 9.300, 0.00000, 9.310, 0.00000
9.320, 0.00000, 9.330, 0.00000, 9.340, 0.00000, 9.350, 0.00000
9.360, 0.00000, 9.370, 0.00000, 9.380, 0.00000, 9.390, 0.00000
9.400, 0.00000, 9.410, 0.00000, 9.420, 0.00000, 9.430, 0.00000
9.440, 0.00000, 9.450, 0.00000, 9.460, 0.00000, 9.470, 0.00000
9.480, 0.00000, 9.490, 0.00000, 9.500, 0.00000, 9.510, 0.00000
9.520, 0.00000, 9.530, 0.00000, 9.540, 0.00000, 9.550, 0.00000
9.560, 0.00000, 9.570, 0.00000, 9.580, 0.00000, 9.590, 0.00000
9.600, 0.00000, 9.610, 0.00000, 9.620, 0.00000, 9.630, 0.00000
9.640, 0.00000, 9.650, 0.00000, 9.660, 0.00000, 9.670, 0.00000
9.680, 0.00000, 9.690, 0.00000, 9.700, 0.00000, 9.710, 0.00000
9.720, 0.00000, 9.730, 0.00000, 9.740, 0.00000, 9.750, 0.00000
9.760, 0.00000, 9.770, 0.00000, 9.780, 0.00000, 9.790, 0.00000
9.800, 0.00000, 9.810, 0.00000, 9.820, 0.00000, 9.830, 0.00000
9.840, 0.00000, 9.850, 0.00000, 9.860, 0.00000, 9.870, 0.00000
9.880, 0.00000, 9.890, 0.00000, 9.900, 0.00000, 9.910, 0.00000
9.920, 0.00000, 9.930, 0.00000, 9.940, 0.00000, 9.950, 0.00000
9.960, 0.00000, 9.970, 0.00000, 9.980, 0.00000, 9.990, 0.00000
*AMPLITUDE, NAME=ROW20
0.000, 0.00000, 0.010, 42.32393, 0.020, 84.64785, 0.030, 126.97178
0.040, 169.29571, 0.050, 211.61963, 0.060, 201.03865, 0.070, 190.45767
0.080, 179.87669, 0.090, 169.29571, 0.100, 158.71472, 0.110, 148.13374
0.120, 137.55276, 0.130, 126.97178, 0.140, 116.39080, 0.150, 105.80982
0.160, 95.22883, 0.170, 84.64785, 0.180, 74.06687, 0.190, 63.48589
0.200, 52.90491, 0.210, 42.32393, 0.220, 31.74294, 0.230, 21.16196
0.240, 10.58098, 0.250, 0.00000, 0.260, 0.00000, 0.270, 0.00000
0.280, 0.00000, 0.290, 0.00000, 0.300, 0.00000, 0.310, 0.00000
0.320, 0.00000, 0.330, 0.00000, 0.340, 0.00000, 0.350, 0.00000
0.360, 0.00000, 0.370, 0.00000, 0.380, 0.00000, 0.390, 0.00000
0.400, 0.00000, 0.410, 0.00000, 0.420, 0.00000, 0.430, 0.00000
0.440, 0.00000, 0.450, 0.00000, 0.460, 0.00000, 0.470, 0.00000
0.480, 0.00000, 0.490, 0.00000, 0.500, 0.00000, 0.510, 0.00000
0.520, 0.00000, 0.530, 0.00000, 0.540, 0.00000, 0.550, 0.00000
0.560, 0.00000, 0.570, 0.00000, 0.580, 0.00000, 0.590, 0.00000
0.600, 0.00000, 0.610, 0.00000, 0.620, 0.00000, 0.630, 0.00000
0.640, 0.00000, 0.650, 0.00000, 0.660, 0.00000, 0.670, 0.00000
0.680, 0.00000, 0.690, 0.00000, 0.700, 0.00000, 0.710, 0.00000
0.720, 0.00000, 0.730, 0.00000, 0.740, 0.00000, 0.750, 0.00000
0.760, 0.00000, 0.770, 0.00000, 0.780, 0.00000, 0.790, 0.00000
0.800, 0.00000, 0.810, 0.00000, 0.820, 0.00000, 0.830, 0.00000
0.840, 0.00000, 0.850, 0.00000, 0.860, 0.00000, 0.870, 0.00000
0.880, 0.00000, 0.890, 0.00000, 0.900, 0.00000, 0.910, 0.00000
0.920, 0.00000, 0.930, 0.00000, 0.940, 0.00000, 0.950, 0.00000
0.960, 0.00000, 0.970, 0.00000, 0.980, 0.00000, 0.990, 0.00000
1.000, 0.00000, 1.010, 0.00000, 1.020, 0.00000, 1.030, 0.00000
1.040, 0.00000, 1.050, 0.00000, 1.060, 0.00000, 1.070, 0.00000
1.080, 0.00000, 1.090, 0.00000, 1.100, 0.00000, 1.110, 0.00000
1.120, 0.00000, 1.130, 0.00000, 1.140, 0.00000, 1.150, 0.00000
1.160, 0.00000, 1.170, 0.00000, 1.180, 0.00000, 1.190, 0.00000
1.200, 0.00000, 1.210, 0.00000, 1.220, 0.00000, 1.230, 0.00000
1.240, 0.00000, 1.250, 0.00000, 1.260, 0.00000, 1.270, 0.00000
1.280, 0.00000, 1.290, 0.00000, 1.300, 0.00000, 1.310, 0.00000
1.320, 0.00000, 1.330, 0.00000, 1.340, 0.00000, 1.350, 0.00000
1.360, 0.00000, 1.370, 0.00000, 1.380, 0.00000, 1.390, 0.00000
1.400, 0.00000, 1.410, 0.00000, 1.420, 0.00000, 1.430, 0.00000
1.440, 0.00000, 1.450, 0.00000, 1.460, 0.00000, 1.470, 0.00000
1.480, 0.00000, 1.490, 0.00000, 1.500, 0.00000, 1.510, 0.00000
1.520, 0.00000, 1.530, 0.00000, 1.540, 0.00000, 1.550, 0.00000
1.560, 0.00000, 1.570, 0.00000, 1.580, 0.00000, 1.590, 0.00000
1.600, 0.00000, 1.610, 0.00000, 1.620, 0.00000, 1.630, 0.00000
1.640, 0.00000, 1.650, 0.00000, 1.660, 0.00000, 1.670, 0.00000
1.680, 0.00000, 1.690, 0.00000, 1.700, 0.00000, 1.710, 0.00000
1.720, 0.00000, 1.730, 0.00000, 1.740, 0.00000, 1.750, 0.00000
1.760, 0.00000, 1.770, 0.00000, 1.780, 0.00000, 1.790, 0.00000
1.800, 0.00000, 1.810, 0.00000, 1.820, 0.00000, 1.830, 0.00000
1.840, 0.00000, 1.850, 0.00000, 1.860, 0.00000, 1.870, 0.00000
1.880, 0.00000, 1.890, 0.00000, 1.900, 0.00000, 1.910, 0.00000
1.920, 0.00000, 1.930, 0.00000, 1.940, 0.00000, 1.950, 0.00000
1.960, 0.00000, 1.970, 0.00000, 1.980, 0.00000, 1.990, 0.00000
2.000, 0.00000, 2.010, 41.28421, 2.020, 82.56842, 2.030, 123.85264
2.040, 165.13685, 2.050, 206.42106, 2.060, 196.10001, 2.070, 185.77895
2.080, 175.45790, 2.090, 165.13685, 2.100, 154.81579, 2.110, 144.49474
2.120, 134.17369, 2.130, 123.85264, 2.140, 113.53158, 2.150, 103.21053
2.160, 92.88948, 2.170, 82.56842, 2.180, 72.24737, 2.190, 61.92632
2.200, 51.60526, 2.210, 41.28421, 2.220, 30.96316, 2.230, 20.64211
2.240, 10.32105, 2.250, 0.00000, 2.260, 0.00000, 2.270, 0.00000
2.280, 0.00000, 2.290, 0.00000, 2.300, 0.00000, 2.310, 0.00000
2.320, 0.00000, 2.330, 0.00000, 2.340, 0.00000, 2.350, 0.00000
2.360, 0.00000, 2.370, 0.00000, 2.380, 0.00000, 2.390, 0.00000
2.400, 0.00000, 2.410, 0.00000, 2.420, 0.00000, 2.430, 0.00000
2.440, 0.00000, 2.450, 0.00000, 2.460, 0.00000, 2.470, 0.00000
2.480, 0.00000, 2.490, 0.00000, 2.500, 0.00000, 2.510, 0.00000
2.520, 0.00000, 2.530, 0.00000, 2.540, 0.00000, 2.550, 0.00000
2.560, 0.00000, 2.570, 0.00000, 2.580, 0.00000, 2.590, 0.00000
2.600, 0.00000, 2.610, 0.00000, 2.620, 0.00000, 2.630, 0.00000
2.640, 0.00000, 2.650, 0.00000, 2.660, 0.00000, 2.670, 0.00000
2.680, 0.00000, 2.690, 0.00000, 2.700, 0.00000, 2.710, 0.00000
2.720, 0.00000, 2.730, 0.00000, 2.740, 0.00000, 2.750, 0.00000
2.760, 0.00000, 2.770, 0.00000, 2.780, 0.00000, 2.790, 0.00000
2.800, 0.00000, 2.810, 0.00000, 2.820, 0.00000, 2.830, 0.00000
2.840, 0.00000, 2.850, 0.00000, 2.860, 0.00000, 2.870, 0.00000
2.880, 0.00000, 2.890, 0.00000, 2.900, 0.00000, 2.910, 0.00000
2.920, 0.00000, 2.930, 0.00000, 2.940, 0.00000, 2.950, 0.00000
2.960, 0.00000, 2.970, 0.00000, 2.980, 0.00000, 2.990, 0.00000
3.000, 0.00000, 3.010, 0.00000, 3.020, 0.00000, 3.030, 0.00000
3.040, 0.00000, 3.050, 0.00000, 3.060, 0.00000, 3.070, 0.00000
3.080, 0.00000, 3.090, 0.00000, 3.100, 0.00000, 3.110, 0.00000
3.120, 0.00000, 3.130, 0.00000, 3.140, 0.00000, 3.150, 0.00000
3.160, 0.00000, 3.170, 0.00000, 3.180, 0.00000, 3.190, 0.00000
3.200, 0.00000, 3.210, 0.00000, 3.220, 0.00000, 3.230, 0.00000
3.240, 0.00000, 3.250, 0.00000, 3.260, 0.00000, 3.270, 0.00000
3.280, 0.00000, 3.290, 0.00000, 3.300, 0.00000, 3.310, 0.00000
3.320, 0.00000, 3.330, 0.00000, 3.340, 0.00000, 3.350, 0.00000
3.360, 0.00000, 3.370, 0.00000, 3.380, 0.00000, 3.390, 0.00000
3.400, 0.00000, 3.410, 0.00000, 3.420, 0.00000, 3.430, 0.00000
3.440, 0.00000, 3.450, 0.00000, 3.460, 0.00000, 3.470, 0.00000
3.480, 0.00000, 3.490, 0.00000, 3.500, 0.00000, 3.510, 0.00000
3.520, 0.00000, 3.530, 0.00000, 3.540, 0.00000, 3.550, 0.00000
3.560, 0.00000, 3.570, 0.00000, 3.580, 0.00000, 3.590, 0.00000
3.600, 0.00000, 3.610, 0.00000, 3.620, 0.00000, 3.630, 0.00000
3.640, 0.00000, 3.650, 0.00000, 3.660, 0.00000, 3.670, 0.00000
3.680, 0.00000, 3.690, 0.00000, 3.700, 0.00000, 3.710, 0.00000
3.720, 0.00000, 3.730, 0.00000, 3.740, 0.00000, 3.750, 0.00000
3.760, 0.00000, 3.770, 0.00000, 3.780, 0.00000, 3.790, 0.00000
3.800, 0.00000, 3.810, 0.00000, 3.820, 0.00000, 3.830, 0.00000
3.840, 0.00000, 3.850, 0.00000, 3.860, 0.00000, 3.870, 0.00000
3.880, 0.00000, 3.890, 0.00000, 3.900, 0.00000, 3.910, 0.00000
3.920, 0.00000, 3.930, 0.00000, 3.940, 0.00000, 3.950, 0.00000
3.960, 0.00000, 3.970, 0.00000, 3.980, 0.00000, 3.990, 0.00000
4.000, 0.00000, 4.010, 40.49674, 4.020, 80.99348, 4.030, 121.49022
4.040, 161.98696, 4.050, 202.48369, 4.060, 192.35951, 4.070, 182.23532
4.080, 172.11114, 4.090, 161.98696, 4.100, 151.86277, 4.110, 141.73859
4.120, 131.61440, 4.130, 121.49022, 4.140, 111.36603, 4.150, 101.24185
4.160, 91.11766, 4.170, 80.99348, 4.180, 70.86929, 4.190, 60.74511
4.200, 50.62092, 4.210, 40.49674, 4.220, 30.37255, 4.230, 20.24837
4.240, 10.12418, 4.250, 0.00000, 4.260, 0.00000, 4.270, 0.00000
4.280, 0.00000, 4.290, 0.00000, 4.300, 0.00000, 4.310, 0.00000
4.320, 0.00000, 4.330, 0.00000, 4.340, 0.00000, 4.350, 0.00000
4.360, 0.00000, 4.370, 0.00000, 4.380, 0.00000, 4.390, 0.00000
4.400, 0.00000, 4.410, 0.00000, 4.420, 0.00000, 4.430, 0.00000
4.440, 0.00000, 4.450, 0.00000, 4.460, 0.00000, 4.470, 0.00000
4.480, 0.00000, 4.490, 0.00000, 4.500, 0.00000, 4.510, 0.00000
4.520, 0.00000, 4.530, 0.00000, 4.540, 0.00000, 4.550, 0.00000
4.560, 0.00000, 4.570, 0.00000, 4.580, 0.00000, 4.590, 0.00000
4.600, 0.00000, 4.610, 0.00000, 4.620, 0.00000, 4.630, 0.00000
4.640, 0.00000, 4.650, 0.00000, 4.660, 0.00000, 4.670, 0.00000
4.680, 0.00000, 4.690, 0.00000, 4.700, 0.00000, 4.710, 0.00000
4.720, 0.00000, 4.730, 0.00000, 4.740, 0.00000, 4.750, 0.00000
4.760, 0.00000, 4.770, 0.00000, 4.780, 0.00000, 4.790, 0.00000
4.800, 0.00000, 4.810, 0.00000, 4.820, 0.00000, 4.830, 0.00000
4.840, 0.00000, 4.850, 0.00000, 4.860, 0.00000, 4.870, 0.00000
4.880, 0.00000, 4.890, 0.00000, 4.900, 0.00000, 4.910, 0.00000
4.920, 0.00000, 4.930, 0.00000, 4.940, 0.00000, 4.950, 0.00000
4.960, 0.00000, 4.970, 0.00000, 4.980, 0.00000, 4.990, 0.00000
5.000, 0.00000, 5.010, 0.00000, 5.020, 0.00000, 5.030, 0.00000
5.040, 0.00000, 5.050, 0.00000, 5.060, 0.00000, 5.070, 0.00000
5.080, 0.00000, 5.090, 0.00000, 5.100, 0.00000, 5.110, 0.00000
5.120, 0.00000, 5.130, 0.00000, 5.140, 0.00000, 5.150, 0.00000
5.160, 0.00000, 5.170, 0.00000, 5.180, 0.00000, 5.190, 0.00000
5.200, 0.00000, 5.210, 0.00000, 5.220, 0.00000, 5.230, 0.00000
5.240, 0.00000, 5.250, 0.00000, 5.260, 0.00000, 5.270, 0.00000
5.280, 0.00000, 5.290, 0.00000, 5.300, 0.00000, 5.310, 0.00000
5.320, 0.00000, 5.330, 0.00000, 5.340, 0.00000, 5.350, 0.00000
5.360, 0.00000, 5.370, 0.00000, 5.380, 0.00000, 5.390, 0.00000
5.400, 0.00000, 5.410, 0.00000, 5.420, 0.00000, 5.430, 0.00000
5.440, 0.00000, 5.450, 0.00000, 5.460, 0.00000, 5.470, 0.00000
5.480, 0.00000, 5.490, 0.00000, 5.500, 0.00000, 5.510, 0.00000
5.520, 0.00000, 5.530, 0.00000, 5.540, 0.00000, 5.550, 0.00000
5.560, 0.00000, 5.570, 0.00000, 5.580, 0.00000, 5.590, 0.00000
5.600, 0.00000, 5.610, 0.00000, 5.620, 0.00000, 5.630, 0.00000
5.640, 0.00000, 5.650, 0.00000, 5.660, 0.00000, 5.670, 0.00000
5.680, 0.00000, 5.690, 0.00000, 5.700, 0.00000, 5.710, 0.00000
5.720, 0.00000, 5.730, 0.00000, 5.740, 0.00000, 5.750, 0.00000
5.760, 0.00000, 5.770, 0.00000, 5.780, 0.00000, 5.790, 0.00000
5.800, 0.00000, 5.810, 0.00000, 5.820, 0.00000, 5.830, 0.00000
5.840, 0.00000, 5.850, 0.00000, 5.860, 0.00000, 5.870, 0.00000
5.880, 0.00000, 5.890, 0.00000, 5.900, 0.00000, 5.910, 0.00000
5.920, 0.00000, 5.930, 0.00000, 5.940, 0.00000, 5.950, 0.00000
5.960, 0.00000, 5.970, 0.00000, 5.980, 0.00000, 5.990, 0.00000
6.000, 0.00000, 6.010, 39.84680, 6.020, 79.69361, 6.030, 119.54041
6.040, 159.38722, 6.050, 199.23402, 6.060, 189.27232, 6.070, 179.31062
6.080, 169.34892, 6.090, 159.38722, 6.100, 149.42552, 6.110, 139.46382
6.120, 129.50212, 6.130, 119.54041, 6.140, 109.57871, 6.150, 99.61701
6.160, 89.65531, 6.170, 79.69361, 6.180, 69.73191, 6.190, 59.77021
6.200, 49.80851, 6.210, 39.84680, 6.220, 29.88510, 6.230, 19.92340
6.240, 9.96170, 6.250, 0.00000, 6.260, 0.00000, 6.270, 0.00000
6.280, 0.00000, 6.290, 0.00000, 6.300, 0.00000, 6.310, 0.00000
6.320, 0.00000, 6.330, 0.00000, 6.340, 0.00000, 6.350, 0.00000
6.360, 0.00000, 6.370, 0.00000, 6.380, 0.00000, 6.390, 0.00000
6.400, 0.00000, 6.410, 0.00000, 6.420, 0.00000, 6.430, 0.00000
6.440, 0.00000, 6.450, 0.00000, 6.460, 0.00000, 6.470, 0.00000
6.480, 0.00000, 6.490, 0.00000, 6.500, 0.00000, 6.510, 0.00000
6.520, 0.00000, 6.530, 0.00000, 6.540, 0.00000, 6.550, 0.00000
6.560, 0.00000, 6.570, 0.00000, 6.580, 0.00000, 6.590, 0.00000
6.600, 0.00000, 6.610, 0.00000, 6.620, 0.00000, 6.630, 0.00000
6.640, 0.00000, 6.650, 0.00000, 6.660, 0.00000, 6.670, 0.00000
6.680, 0.00000, 6.690, 0.00000, 6.700, 0.00000, 6.710, 0.00000
6.720, 0.00000, 6.730, 0.00000, 6.740, 0.00000, 6.750, 0.00000
6.760, 0.00000, 6.770, 0.00000, 6.780, 0.00000, 6.790, 0.00000
6.800, 0.00000, 6.810, 0.00000, 6.820, 0.00000, 6.830, 0.00000
6.840, 0.00000, 6.850, 0.00000, 6.860, 0.00000, 6.870, 0.00000
6.880, 0.00000, 6.890, 0.00000, 6.900, 0.00000, 6.910, 0.00000
6.920, 0.00000, 6.930, 0.00000, 6.940, 0.00000, 6.950, 0.00000
6.960, 0.00000, 6.970, 0.00000, 6.980, 0.00000, 6.990, 0.00000
7.000, 0.00000, 7.010, 0.00000, 7.020, 0.00000, 7.030, 0.00000
7.040, 0.00000, 7.050, 0.00000, 7.060, 0.00000, 7.070, 0.00000
7.080, 0.00000, 7.090, 0.00000, 7.100, 0.00000, 7.110, 0.00000
7.120, 0.00000, 7.130, 0.00000, 7.140, 0.00000, 7.150, 0.00000
7.160, 0.00000, 7.170, 0.00000, 7.180, 0.00000, 7.190, 0.00000
7.200, 0.00000, 7.210, 0.00000, 7.220, 0.00000, 7.230, 0.00000
7.240, 0.00000, 7.250, 0.00000, 7.260, 0.00000, 7.270, 0.00000
7.280, 0.00000, 7.290, 0.00000, 7.300, 0.00000, 7.310, 0.00000
7.320, 0.00000, 7.330, 0.00000, 7.340, 0.00000, 7.350, 0.00000
7.360, 0.00000, 7.370, 0.00000, 7.380, 0.00000, 7.390, 0.00000
7.400, 0.00000, 7.410, 0.00000, 7.420, 0.00000, 7.430, 0.00000
7.440, 0.00000, 7.450, 0.00000, 7.460, 0.00000, 7.470, 0.00000
7.480, 0.00000, 7.490, 0.00000, 7.500, 0.00000, 7.510, 0.00000
7.520, 0.00000, 7.530, 0.00000, 7.540, 0.00000, 7.550, 0.00000
7.560, 0.00000, 7.570, 0.00000, 7.580, 0.00000, 7.590, 0.00000
7.600, 0.00000, 7.610, 0.00000, 7.620, 0.00000, 7.630, 0.00000
7.640, 0.00000, 7.650, 0.00000, 7.660, 0.00000, 7.670, 0.00000
7.680, 0.00000, 7.690, 0.00000, 7.700, 0.00000, 7.710, 0.00000
7.720, 0.00000, 7.730, 0.00000, 7.740, 0.00000, 7.750, 0.00000
7.760, 0.00000, 7.770, 0.00000, 7.780, 0.00000, 7.790, 0.00000
7.800, 0.00000, 7.810, 0.00000, 7.820, 0.00000, 7.830, 0.00000
7.840, 0.00000, 7.850, 0.00000, 7.860, 0.00000, 7.870, 0.00000
7.880, 0.00000, 7.890, 0.00000, 7.900, 0.00000, 7.910, 0.00000
7.920, 0.00000, 7.930, 0.00000, 7.940, 0.00000, 7.950, 0.00000
7.960, 0.00000, 7.970, 0.00000, 7.980, 0.00000, 7.990, 0.00000
8.000, 0.00000, 8.010, 39.28612, 8.020, 78.57224, 8.030, 117.85836
8.040, 157.14448, 8.050, 196.43060, 8.060, 186.60907, 8.070, 176.78754
8.080, 166.96601, 8.090, 157.14448, 8.100, 147.32295, 8.110, 137.50142
8.120, 127.67989, 8.130, 117.85836, 8.140, 108.03683, 8.150, 98.21530
8.160, 88.39377, 8.170, 78.57224, 8.180, 68.75071, 8.190, 58.92918
8.200, 49.10765, 8.210, 39.28612, 8.220, 29.46459, 8.230, 19.64306
8.240, 9.82153, 8.250, 0.00000, 8.260, 0.00000, 8.270, 0.00000
8.280, 0.00000, 8.290, 0.00000, 8.300, 0.00000, 8.310, 0.00000
8.320, 0.00000, 8.330, 0.00000, 8.340, 0.00000, 8.350, 0.00000
8.360, 0.00000, 8.370, 0.00000, 8.380, 0.00000, 8.390, 0.00000
8.400, 0.00000, 8.410, 0.00000, 8.420, 0.00000, 8.430, 0.00000
8.440, 0.00000, 8.450, 0.00000, 8.460, 0.00000, 8.470, 0.00000
8.480, 0.00000, 8.490, 0.00000, 8.500, 0.00000, 8.510, 0.00000
8.520, 0.00000, 8.530, 0.00000, 8.540, 0.00000, 8.550, 0.00000
8.560, 0.00000, 8.570, 0.00000, 8.580, 0.00000, 8.590, 0.00000
8.600, 0.00000, 8.610, 0.00000, 8.620, 0.00000, 8.630, 0.00000
8.640, 0.00000, 8.650, 0.00000, 8.660, 0.00000, 8.670, 0.00000
8.680, 0.00000, 8.690, 0.00000, 8.700, 0.00000, 8.710, 0.00000
8.720, 0.00000, 8.730, 0.00000, 8.740, 0.00000, 8.750, 0.00000
8.760, 0.00000, 8.770, 0.00000, 8.780, 0.00000, 8.790, 0.00000
8.800, 0.00000, 8.810, 0.00000, 8.820, 0.00000, 8.830, 0.00000
8.840, 0.00000, 8.850, 0.00000, 8.860, 0.00000, 8.870, 0.00000
8.880, 0.00000, 8.890, 0.00000, 8.900, 0.00000, 8.910, 0.00000
8.920, 0.00000, 8.930, 0.00000, 8.940, 0.00000, 8.950, 0.00000
8.960, 0.00000, 8.970, 0.00000, 8.980, 0.00000, 8.990, 0.00000
9.000, 0.00000, 9.010, 0.00000, 9.020, 0.00000, 9.030, 0.00000
9.040, 0.00000, 9.050, 0.00000, 9.060, 0.00000, 9.070, 0.00000
9.080, 0.00000, 9.090, 0.00000, 9.100, 0.00000, 9.110, 0.00000
9.120, 0.00000, 9.130, 0.00000, 9.140, 0.00000, 9.150, 0.00000
9.160, 0.00000, 9.170, 0.00000, 9.180, 0.00000, 9.190, 0.00000
9.200, 0.00000, 9.210, 0.00000, 9.220, 0.00000, 9.230, 0.00000
9.240, 0.00000, 9.250, 0.00000, 9.260, 0.00000, 9.270, 0.00000
9.280, 0.00000, 9.290, 0.00000, 9.300, 0.00000, 9.310, 0.00000
9.320, 0.00000, 9.330, 0.00000, 9.340, 0.00000, 9.350, 0.00000
9.360, 0.00000, 9.370, 0.00000, 9.380, 0.00000, 9.390, 0.00000
9.400, 0.00000, 9.410, 0.00000, 9.420, 0.00000, 9.430, 0.00000
9.440, 0.00000, 9.450, 0.00000, 9.460, 0.00000, 9.470, 0.00000
9.480, 0.00000, 9.490, 0.00000, 9.500, 0.00000, 9.510, 0.00000
9.520, 0.00000, 9.530, 0.00000, 9.540, 0.00000, 9.550, 0.00000
9.560, 0.00000, 9.570, 0.00000, 9.580, 0.00000, 9.590, 0.00000
9.600, 0.00000, 9.610, 0.00000, 9.620, 0.00000, 9.630, 0.00000
9.640, 0.00000, 9.650, 0.00000, 9.660, 0.00000, 9.670, 0.00000
9.680, 0.00000, 9.690, 0.00000, 9.700, 0.00000, 9.710, 0.00000
9.720, 0.00000, 9.730, 0.00000, 9.740, 0.00000, 9.750, 0.00000
9.760, 0.00000, 9.770, 0.00000, 9.780, 0.00000, 9.790, 0.00000
9.800, 0.00000, 9.810, 0.00000, 9.820, 0.00000, 9.830, 0.00000
9.840, 0.00000, 9.850, 0.00000, 9.860, 0.00000, 9.870, 0.00000
9.880, 0.00000, 9.890, 0.00000, 9.900, 0.00000, 9.910, 0.00000
9.920, 0.00000, 9.930, 0.00000, 9.940, 0.00000, 9.950, 0.00000
9.960, 0.00000, 9.970, 0.00000, 9.980, 0.00000, 9.990, 0.00000
*AMPLITUDE, NAME=ROW21
0.000, 0.00000, 0.010, 18.80785, 0.020, 37.61569, 0.030, 56.42354
0.040, 75.23138, 0.050, 94.03923, 0.060, 89.33727, 0.070, 84.63530
0.080, 79.93334, 0.090, 75.23138, 0.100, 70.52942, 0.110, 65.82746
0.120, 61.12550, 0.130, 56.42354, 0.140, 51.72158, 0.150, 47.01961
0.160, 42.31765, 0.170, 37.61569, 0.180, 32.91373, 0.190, 28.21177
0.200, 23.50981, 0.210, 18.80785, 0.220, 14.10588, 0.230, 9.40392
0.240, 4.70196, 0.250, 0.00000, 0.260, 0.00000, 0.270, 0.00000
0.280, 0.00000, 0.290, 0.00000, 0.300, 0.00000, 0.310, 0.00000
0.320, 0.00000, 0.330, 0.00000, 0.340, 0.00000, 0.350, 0.00000
0.360, 0.00000, 0.370, 0.00000, 0.380, 0.00000, 0.390, 0.00000
0.400, 0.00000, 0.410, 0.00000, 0.420, 0.00000, 0.430, 0.00000
0.440, 0.00000, 0.450, 0.00000, 0.460, 0.00000, 0.470, 0.00000
0.480, 0.00000, 0.490, 0.00000, 0.500, 0.00000, 0.510, 0.00000
0.520, 0.00000, 0.530, 0.00000, 0.540, 0.00000, 0.550, 0.00000
0.560, 0.00000, 0.570, 0.00000, 0.580, 0.00000, 0.590, 0.00000
0.600, 0.00000, 0.610, 0.00000, 0.620, 0.00000, 0.630, 0.00000
0.640, 0.00000, 0.650, 0.00000, 0.660, 0.00000, 0.670, 0.00000
0.680, 0.00000, 0.690, 0.00000, 0.700, 0.00000, 0.710, 0.00000
0.720, 0.00000, 0.730, 0.00000, 0.740, 0.00000, 0.750, 0.00000
0.760, 0.00000, 0.770, 0.00000, 0.780, 0.00000, 0.790, 0.00000
0.800, 0.00000, 0.810, 0.00000, 0.820, 0.00000, 0.830, 0.00000
0.840, 0.00000, 0.850, 0.00000, 0.860, 0.00000, 0.870, 0.00000
0.880, 0.00000, 0.890, 0.00000, 0.900, 0.00000, 0.910, 0.00000
0.920, 0.00000, 0.930, 0.00000, 0.940, 0.00000, 0.950, 0.00000
0.960, 0.00000, 0.970, 0.00000, 0.980, 0.00000, 0.990, 0.00000
1.000, 0.00000, 1.010, 0.00000, 1.020, 0.00000, 1.030, 0.00000
1.040, 0.00000, 1.050, 0.00000, 1.060, 0.00000, 1.070, 0.00000
1.080, 0.00000, 1.090, 0.00000, 1.100, 0.00000, 1.110, 0.00000
1.120, 0.00000, 1.130, 0.00000, 1.140, 0.00000, 1.150, 0.00000
1.160, 0.00000, 1.170, 0.00000, 1.180, 0.00000, 1.190, 0.00000
1.200, 0.00000, 1.210, 0.00000, 1.220, 0.00000, 1.230, 0.00000
1.240, 0.00000, 1.250, 0.00000, 1.260, 0.00000, 1.270, 0.00000
1.280, 0.00000, 1.290, 0.00000, 1.300, 0.00000, 1.310, 0.00000
1.320, 0.00000, 1.330, 0.00000, 1.340, 0.00000, 1.350, 0.00000
1.360, 0.00000, 1.370, 0.00000, 1.380, 0.00000, 1.390, 0.00000
1.400, 0.00000, 1.410, 0.00000, 1.420, 0.00000, 1.430, 0.00000
1.440, 0.00000, 1.450, 0.00000, 1.460, 0.00000, 1.470, 0.00000
1.480, 0.00000, 1.490, 0.00000, 1.500, 0.00000, 1.510, 0.00000
1.520, 0.00000, 1.530, 0.00000, 1.540, 0.00000, 1.550, 0.00000
1.560, 0.00000, 1.570, 0.00000, 1.580, 0.00000, 1.590, 0.00000
1.600, 0.00000, 1.610, 0.00000, 1.620, 0.00000, 1.630, 0.00000
1.640, 0.00000, 1.650, 0.00000, 1.660, 0.00000, 1.670, 0.00000
1.680, 0.00000, 1.690, 0.00000, 1.700, 0.00000, 1.710, 0.00000
1.720, 0.00000, 1.730, 0.00000, 1.740, 0.00000, 1.750, 0.00000
1.760, 0.00000, 1.770, 0.00000, 1.780, 0.00000, 1.790, 0.00000
1.800, 0.00000, 1.810, 0.00000, 1.820, 0.00000, 1.830, 0.00000
1.840, 0.00000, 1.850, 0.00000, 1.860, 0.00000, 1.870, 0.00000
1.880, 0.00000, 1.890, 0.00000, 1.900, 0.00000, 1.910, 0.00000
1.920, 0.00000, 1.930, 0.00000, 1.940, 0.00000, 1.950, 0.00000
1.960, 0.00000, 1.970, 0.00000, 1.980, 0.00000, 1.990, 0.00000
2.000, 0.00000, 2.010, 18.34582, 2.020, 36.69164, 2.030, 55.03746
2.040, 73.38327, 2.050, 91.72909, 2.060, 87.14264, 2.070, 82.55618
2.080, 77.96973, 2.090, 73.38327, 2.100, 68.79682, 2.110, 64.21037
2.120, 59.62391, 2.130, 55.03746, 2.140, 50.45100, 2.150, 45.86455
2.160, 41.27809, 2.170, 36.69164, 2.180, 32.10518, 2.190, 27.51873
2.200, 22.93227, 2.210, 18.34582, 2.220, 13.75936, 2.230, 9.17291
2.240, 4.58645, 2.250, 0.00000, 2.260, 0.00000, 2.270, 0.00000
2.280, 0.00000, 2.290, 0.00000, 2.300, 0.00000, 2.310, 0.00000
2.320, 0.00000, 2.330, 0.00000, 2.340, 0.00000, 2.350, 0.00000
2.360, 0.00000, 2.370, 0.00000, 2.380, 0.00000, 2.390, 0.00000
2.400, 0.00000, 2.410, 0.00000, 2.420, 0.00000, 2.430, 0.00000
2.440, 0.00000, 2.450, 0.00000, 2.460, 0.00000, 2.470, 0.00000
2.480, 0.00000, 2.490, 0.00000, 2.500, 0.00000, 2.510, 0.00000
2.520, 0.00000, 2.530, 0.00000, 2.540, 0.00000, 2.550, 0.00000
2.560, 0.00000, 2.570, 0.00000, 2.580, 0.00000, 2.590, 0.00000
2.600, 0.00000, 2.610, 0.00000, 2.620, 0.00000, 2.630, 0.00000
2.640, 0.00000, 2.650, 0.00000, 2.660, 0.00000, 2.670, 0.00000
2.680, 0.00000, 2.690, 0.00000, 2.700, 0.00000, 2.710, 0.00000
2.720, 0.00000, 2.730, 0.00000, 2.740, 0.00000, 2.750, 0.00000
2.760, 0.00000, 2.770, 0.00000, 2.780, 0.00000, 2.790, 0.00000
2.800, 0.00000, 2.810, 0.00000, 2.820, 0.00000, 2.830, 0.00000
2.840, 0.00000, 2.850, 0.00000, 2.860, 0.00000, 2.870, 0.00000
2.880, 0.00000, 2.890, 0.00000, 2.900, 0.00000, 2.910, 0.00000
2.920, 0.00000, 2.930, 0.00000, 2.940, 0.00000, 2.950, 0.00000
2.960, 0.00000, 2.970, 0.00000, 2.980, 0.00000, 2.990, 0.00000
3.000, 0.00000, 3.010, 0.00000, 3.020, 0.00000, 3.030, 0.00000
3.040, 0.00000, 3.050, 0.00000, 3.060, 0.00000, 3.070, 0.00000
3.080, 0.00000, 3.090, 0.00000, 3.100, 0.00000, 3.110, 0.00000
3.120, 0.00000, 3.130, 0.00000, 3.140, 0.00000, 3.150, 0.00000
3.160, 0.00000, 3.170, 0.00000, 3.180, 0.00000, 3.190, 0.00000
3.200, 0.00000, 3.210, 0.00000, 3.220, 0.00000, 3.230, 0.00000
3.240, 0.00000, 3.250, 0.00000, 3.260, 0.00000, 3.270, 0.00000
3.280, 0.00000, 3.290, 0.00000, 3.300, 0.00000, 3.310, 0.00000
3.320, 0.00000, 3.330, 0.00000, 3.340, 0.00000, 3.350, 0.00000
3.360, 0.00000, 3.370, 0.00000, 3.380, 0.00000, 3.390, 0.00000
3.400, 0.00000, 3.410, 0.00000, 3.420, 0.00000, 3.430, 0.00000
3.440, 0.00000, 3.450, 0.00000, 3.460, 0.00000, 3.470, 0.00000
3.480, 0.00000, 3.490, 0.00000, 3.500, 0.00000, 3.510, 0.00000
3.520, 0.00000, 3.530, 0.00000, 3.540, 0.00000, 3.550, 0.00000
3.560, 0.00000, 3.570, 0.00000, 3.580, 0.00000, 3.590, 0.00000
3.600, 0.00000, 3.610, 0.00000, 3.620, 0.00000, 3.630, 0.00000
3.640, 0.00000, 3.650, 0.00000, 3.660, 0.00000, 3.670, 0.00000
3.680, 0.00000, 3.690, 0.00000, 3.700, 0.00000, 3.710, 0.00000
3.720, 0.00000, 3.730, 0.00000, 3.740, 0.00000, 3.750, 0.00000
3.760, 0.00000, 3.770, 0.00000, 3.780, 0.00000, 3.790, 0.00000
3.800, 0.00000, 3.810, 0.00000, 3.820, 0.00000, 3.830, 0.00000
3.840, 0.00000, 3.850, 0.00000, 3.860, 0.00000, 3.870, 0.00000
3.880, 0.00000, 3.890, 0.00000, 3.900, 0.00000, 3.910, 0.00000
3.920, 0.00000, 3.930, 0.00000, 3.940, 0.00000, 3.950, 0.00000
3.960, 0.00000, 3.970, 0.00000, 3.980, 0.00000, 3.990, 0.00000
4.000, 0.00000, 4.010, 17.99588, 4.020, 35.99177, 4.030, 53.98765
4.040, 71.98353, 4.050, 89.97941, 4.060, 85.48044, 4.070, 80.98147
4.080, 76.48250, 4.090, 71.98353, 4.100, 67.48456, 4.110, 62.98559
4.120, 58.48662, 4.130, 53.98765, 4.140, 49.48868, 4.150, 44.98971
4.160, 40.49074, 4.170, 35.99177, 4.180, 31.49279, 4.190, 26.99382
4.200, 22.49485, 4.210, 17.99588, 4.220, 13.49691, 4.230, 8.99794
4.240, 4.49897, 4.250, 0.00000, 4.260, 0.00000, 4.270, 0.00000
4.280, 0.00000, 4.290, 0.00000, 4.300, 0.00000, 4.310, 0.00000
4.320, 0.00000, 4.330, 0.00000, 4.340, 0.00000, 4.350, 0.00000
4.360, 0.00000, 4.370, 0.00000, 4.380, 0.00000, 4.390, 0.00000
4.400, 0.00000, 4.410, 0.00000, 4.420, 0.00000, 4.430, 0.00000
4.440, 0.00000, 4.450, 0.00000, 4.460, 0.00000, 4.470, 0.00000
4.480, 0.00000, 4.490, 0.00000, 4.500, 0.00000, 4.510, 0.00000
4.520, 0.00000, 4.530, 0.00000, 4.540, 0.00000, 4.550, 0.00000
4.560, 0.00000, 4.570, 0.00000, 4.580, 0.00000, 4.590, 0.00000
4.600, 0.00000, 4.610, 0.00000, 4.620, 0.00000, 4.630, 0.00000
4.640, 0.00000, 4.650, 0.00000, 4.660, 0.00000, 4.670, 0.00000
4.680, 0.00000, 4.690, 0.00000, 4.700, 0.00000, 4.710, 0.00000
4.720, 0.00000, 4.730, 0.00000, 4.740, 0.00000, 4.750, 0.00000
4.760, 0.00000, 4.770, 0.00000, 4.780, 0.00000, 4.790, 0.00000
4.800, 0.00000, 4.810, 0.00000, 4.820, 0.00000, 4.830, 0.00000
4.840, 0.00000, 4.850, 0.00000, 4.860, 0.00000, 4.870, 0.00000
4.880, 0.00000, 4.890, 0.00000, 4.900, 0.00000, 4.910, 0.00000
4.920, 0.00000, 4.930, 0.00000, 4.940, 0.00000, 4.950, 0.00000
4.960, 0.00000, 4.970, 0.00000, 4.980, 0.00000, 4.990, 0.00000
5.000, 0.00000, 5.010, 0.00000, 5.020, 0.00000, 5.030, 0.00000
5.040, 0.00000, 5.050, 0.00000, 5.060, 0.00000, 5.070, 0.00000
5.080, 0.00000, 5.090, 0.00000, 5.100, 0.00000, 5.110, 0.00000
5.120, 0.00000, 5.130, 0.00000, 5.140, 0.00000, 5.150, 0.00000
5.160, 0.00000, 5.170, 0.00000, 5.180, 0.00000, 5.190, 0.00000
5.200, 0.00000, 5.210, 0.00000, 5.220, 0.00000, 5.230, 0.00000
5.240, 0.00000, 5.250, 0.00000, 5.260, 0.00000, 5.270, 0.00000
5.280, 0.00000, 5.290, 0.00000, 5.300, 0.00000, 5.310, 0.00000
5.320, 0.00000, 5.330, 0.00000, 5.340, 0.00000, 5.350, 0.00000
5.360, 0.00000, 5.370, 0.00000, 5.380, 0.00000, 5.390, 0.00000
5.400, 0.00000, 5.410, 0.00000, 5.420, 0.00000, 5.430, 0.00000
5.440, 0.00000, 5.450, 0.00000, 5.460, 0.00000, 5.470, 0.00000
5.480, 0.00000, 5.490, 0.00000, 5.500, 0.00000, 5.510, 0.00000
5.520, 0.00000, 5.530, 0.00000, 5.540, 0.00000, 5.550, 0.00000
5.560, 0.00000, 5.570, 0.00000, 5.580, 0.00000, 5.590, 0.00000
5.600, 0.00000, 5.610, 0.00000, 5.620, 0.00000, 5.630, 0.00000
5.640, 0.00000, 5.650, 0.00000, 5.660, 0.00000, 5.670, 0.00000
5.680, 0.00000, 5.690, 0.00000, 5.700, 0.00000, 5.710, 0.00000
5.720, 0.00000, 5.730, 0.00000, 5.740, 0.00000, 5.750, 0.00000
5.760, 0.00000, 5.770, 0.00000, 5.780, 0.00000, 5.790, 0.00000
5.800, 0.00000, 5.810, 0.00000, 5.820, 0.00000, 5.830, 0.00000
5.840, 0.00000, 5.850, 0.00000, 5.860, 0.00000, 5.870, 0.00000
5.880, 0.00000, 5.890, 0.00000, 5.900, 0.00000, 5.910, 0.00000
5.920, 0.00000, 5.930, 0.00000, 5.940, 0.00000, 5.950, 0.00000
5.960, 0.00000, 5.970, 0.00000, 5.980, 0.00000, 5.990, 0.00000
6.000, 0.00000, 6.010, 17.70707, 6.020, 35.41413, 6.030, 53.12120
6.040, 70.82826, 6.050, 88.53533, 6.060, 84.10856, 6.070, 79.68180
6.080, 75.25503, 6.090, 70.82826, 6.100, 66.40150, 6.110, 61.97473
6.120, 57.54796, 6.130, 53.12120, 6.140, 48.69443, 6.150, 44.26766
6.160, 39.84090, 6.170, 35.41413, 6.180, 30.98737, 6.190, 26.56060
6.200, 22.13383, 6.210, 17.70707, 6.220, 13.28030, 6.230, 8.85353
6.240, 4.42677, 6.250, 0.00000, 6.260, 0.00000, 6.270, 0.00000
6.280, 0.00000, 6.290, 0.00000, 6.300, 0.00000, 6.310, 0.00000
6.320, 0.00000, 6.330, 0.00000, 6.340, 0.00000, 6.350, 0.00000
6.360, 0.00000, 6.370, 0.00000, 6.380, 0.00000, 6.390, 0.00000
6.400, 0.00000, 6.410, 0.00000, 6.420, 0.00000, 6.430, 0.00000
6.440, 0.00000, 6.450, 0.00000, 6.460, 0.00000, 6.470, 0.00000
6.480, 0.00000, 6.490, 0.00000, 6.500, 0.00000, 6.510, 0.00000
6.520, 0.00000, 6.530, 0.00000, 6.540, 0.00000, 6.550, 0.00000
6.560, 0.00000, 6.570, 0.00000, 6.580, 0.00000, 6.590, 0.00000
6.600, 0.00000, 6.610, 0.00000, 6.620, 0.00000, 6.630, 0.00000
6.640, 0.00000, 6.650, 0.00000, 6.660, 0.00000, 6.670, 0.00000
6.680, 0.00000, 6.690, 0.00000, 6.700, 0.00000, 6.710, 0.00000
6.720, 0.00000, 6.730, 0.00000, 6.740, 0.00000, 6.750, 0.00000
6.760, 0.00000, 6.770, 0.00000, 6.780, 0.00000, 6.790, 0.00000
6.800, 0.00000, 6.810, 0.00000, 6.820, 0.00000, 6.830, 0.00000
6.840, 0.00000, 6.850, 0.00000, 6.860, 0.00000, 6.870, 0.00000
6.880, 0.00000, 6.890, 0.00000, 6.900, 0.00000, 6.910, 0.00000
6.920, 0.00000, 6.930, 0.00000, 6.940, 0.00000, 6.950, 0.00000
6.960, 0.00000, 6.970, 0.00000, 6.980, 0.00000, 6.990, 0.00000
7.000, 0.00000, 7.010, 0.00000, 7.020, 0.00000, 7.030, 0.00000
7.040, 0.00000, 7.050, 0.00000, 7.060, 0.00000, 7.070, 0.00000
7.080, 0.00000, 7.090, 0.00000, 7.100, 0.00000, 7.110, 0.00000
7.120, 0.00000, 7.130, 0.00000, 7.140, 0.00000, 7.150, 0.00000
7.160, 0.00000, 7.170, 0.00000, 7.180, 0.00000, 7.190, 0.00000
7.200, 0.00000, 7.210, 0.00000, 7.220, 0.00000, 7.230, 0.00000
7.240, 0.00000, 7.250, 0.00000, 7.260, 0.00000, 7.270, 0.00000
7.280, 0.00000, 7.290, 0.00000, 7.300, 0.00000, 7.310, 0.00000
7.320, 0.00000, 7.330, 0.00000, 7.340, 0.00000, 7.350, 0.00000
7.360, 0.00000, 7.370, 0.00000, 7.380, 0.00000, 7.390, 0.00000
7.400, 0.00000, 7.410, 0.00000, 7.420, 0.00000, 7.430, 0.00000
7.440, 0.00000, 7.450, 0.00000, 7.460, 0.00000, 7.470, 0.00000
7.480, 0.00000, 7.490, 0.00000, 7.500, 0.00000, 7.510, 0.00000
7.520, 0.00000, 7.530, 0.00000, 7.540, 0.00000, 7.550, 0.00000
7.560, 0.00000, 7.570, 0.00000, 7.580, 0.00000, 7.590, 0.00000
7.600, 0.00000, 7.610, 0.00000, 7.620, 0.00000, 7.630, 0.00000
7.640, 0.00000, 7.650, 0.00000, 7.660, 0.00000, 7.670, 0.00000
7.680, 0.00000, 7.690, 0.00000, 7.700, 0.00000, 7.710, 0.00000
7.720, 0.00000, 7.730, 0.00000, 7.740, 0.00000, 7.750, 0.00000
7.760, 0.00000, 7.770, 0.00000, 7.780, 0.00000, 7.790, 0.00000
7.800, 0.00000, 7.810, 0.00000, 7.820, 0.00000, 7.830, 0.00000
7.840, 0.00000, 7.850, 0.00000, 7.860, 0.00000, 7.870, 0.00000
7.880, 0.00000, 7.890, 0.00000, 7.900, 0.00000, 7.910, 0.00000
7.920, 0.00000, 7.930, 0.00000, 7.940, 0.00000, 7.950, 0.00000
7.960, 0.00000, 7.970, 0.00000, 7.980, 0.00000, 7.990, 0.00000
8.000, 0.00000, 8.010, 17.45791, 8.020, 34.91582, 8.030, 52.37373
8.040, 69.83164, 8.050, 87.28955, 8.060, 82.92507, 8.070, 78.56059
8.080, 74.19611, 8.090, 69.83164, 8.100, 65.46716, 8.110, 61.10268
8.120, 56.73820, 8.130, 52.37373, 8.140, 48.00925, 8.150, 43.64477
8.160, 39.28030, 8.170, 34.91582, 8.180, 30.55134, 8.190, 26.18686
8.200, 21.82239, 8.210, 17.45791, 8.220, 13.09343, 8.230, 8.72895
8.240, 4.36448, 8.250, 0.00000, 8.260, 0.00000, 8.270, 0.00000
8.280, 0.00000, 8.290, 0.00000, 8.300, 0.00000, 8.310, 0.00000
8.320, 0.00000, 8.330, 0.00000, 8.340, 0.00000, 8.350, 0.00000
8.360, 0.00000, 8.370, 0.00000, 8.380, 0.00000, 8.390, 0.00000
8.400, 0.00000, 8.410, 0.00000, 8.420, 0.00000, 8.430, 0.00000
8.440, 0.00000, 8.450, 0.00000, 8.460, 0.00000, 8.470, 0.00000
8.480, 0.00000, 8.490, 0.00000, 8.500, 0.00000, 8.510, 0.00000
8.520, 0.00000, 8.530, 0.00000, 8.540, 0.00000, 8.550, 0.00000
8.560, 0.00000, 8.570, 0.00000, 8.580, 0.00000, 8.590, 0.00000
8.600, 0.00000, 8.610, 0.00000, 8.620, 0.00000, 8.630, 0.00000
8.640, 0.00000, 8.650, 0.00000, 8.660, 0.00000, 8.670, 0.00000
8.680, 0.00000, 8.690, 0.00000, 8.700, 0.00000, 8.710, 0.00000
8.720, 0.00000, 8.730, 0.00000, 8.740, 0.00000, 8.750, 0.00000
8.760, 0.00000, 8.770, 0.00000, 8.780, 0.00000, 8.790, 0.00000
8.800, 0.00000, 8.810, 0.00000, 8.820, 0.00000, 8.830, 0.00000
8.840, 0.00000, 8.850, 0.00000, 8.860, 0.00000, 8.870, 0.00000
8.880, 0.00000, 8.890, 0.00000, 8.900, 0.00000, 8.910, 0.00000
8.920, 0.00000, 8.930, 0.00000, 8.940, 0.00000, 8.950, 0.00000
8.960, 0.00000, 8.970, 0.00000, 8.980, 0.00000, 8.990, 0.00000
9.000, 0.00000, 9.010, 0.00000, 9.020, 0.00000, 9.030, 0.00000
9.040, 0.00000, 9.050, 0.00000, 9.060, 0.00000, 9.070, 0.00000
9.080, 0.00000, 9.090, 0.00000, 9.100, 0.00000, 9.110, 0.00000
9.120, 0.00000, 9.130, 0.00000, 9.140, 0.00000, 9.150, 0.00000
9.160, 0.00000, 9.170, 0.00000, 9.180, 0.00000, 9.190, 0.00000
9.200, 0.00000, 9.210, 0.00000, 9.220, 0.00000, 9.230, 0.00000
9.240, 0.00000, 9.250, 0.00000, 9.260, 0.00000, 9.270, 0.00000
9.280, 0.00000, 9.290, 0.00000, 9.300, 0.00000, 9.310, 0.00000
9.320, 0.00000, 9.330, 0.00000, 9.340, 0.00000, 9.350, 0.00000
9.360, 0.00000, 9.370, 0.00000, 9.380, 0.00000, 9.390, 0.00000
9.400, 0.00000, 9.410, 0.00000, 9.420, 0.00000, 9.430, 0.00000
9.440, 0.00000, 9.450, 0.00000, 9.460, 0.00000, 9.470, 0.00000
9.480, 0.00000, 9.490, 0.00000, 9.500, 0.00000, 9.510, 0.00000
9.520, 0.00000, 9.530, 0.00000, 9.540, 0.00000, 9.550, 0.00000
9.560, 0.00000, 9.570, 0.00000, 9.580, 0.00000, 9.590, 0.00000
9.600, 0.00000, 9.610, 0.00000, 9.620, 0.00000, 9.630, 0.00000
9.640, 0.00000, 9.650, 0.00000, 9.660, 0.00000, 9.670, 0.00000
9.680, 0.00000, 9.690, 0.00000, 9.700, 0.00000, 9.710, 0.00000
9.720, 0.00000, 9.730, 0.00000, 9.740, 0.00000, 9.750, 0.00000
9.760, 0.00000, 9.770, 0.00000, 9.780, 0.00000, 9.790, 0.00000
9.800, 0.00000, 9.810, 0.00000, 9.820, 0.00000, 9.830, 0.00000
9.840, 0.00000, 9.850, 0.00000, 9.860, 0.00000, 9.870, 0.00000
9.880, 0.00000, 9.890, 0.00000, 9.900, 0.00000, 9.910, 0.00000
9.920, 0.00000, 9.930, 0.00000, 9.940, 0.00000, 9.950, 0.00000
9.960, 0.00000, 9.970, 0.00000, 9.980, 0.00000, 9.990, 0.00000
*AMPLITUDE, NAME=ROW22
0.000, 0.00000, 0.010, 8.33868, 0.020, 16.67735, 0.030, 25.01603
0.040, 33.35471, 0.050, 41.69338, 0.060, 39.60871, 0.070, 37.52404
0.080, 35.43938, 0.090, 33.35471, 0.100, 31.27004, 0.110, 29.18537
0.120, 27.10070, 0.130, 25.01603, 0.140, 22.93136, 0.150, 20.84669
0.160, 18.76202, 0.170, 16.67735, 0.180, 14.59268, 0.190, 12.50801
0.200, 10.42335, 0.210, 8.33868, 0.220, 6.25401, 0.230, 4.16934
0.240, 2.08467, 0.250, 0.00000, 0.260, 0.00000, 0.270, 0.00000
0.280, 0.00000, 0.290, 0.00000, 0.300, 0.00000, 0.310, 0.00000
0.320, 0.00000, 0.330, 0.00000, 0.340, 0.00000, 0.350, 0.00000
0.360, 0.00000, 0.370, 0.00000, 0.380, 0.00000, 0.390, 0.00000
0.400, 0.00000, 0.410, 0.00000, 0.420, 0.00000, 0.430, 0.00000
0.440, 0.00000, 0.450, 0.00000, 0.460, 0.00000, 0.470, 0.00000
0.480, 0.00000, 0.490, 0.00000, 0.500, 0.00000, 0.510, 0.00000
0.520, 0.00000, 0.530, 0.00000, 0.540, 0.00000, 0.550, 0.00000
0.560, 0.00000, 0.570, 0.00000, 0.580, 0.00000, 0.590, 0.00000
0.600, 0.00000, 0.610, 0.00000, 0.620, 0.00000, 0.630, 0.00000
0.640, 0.00000, 0.650, 0.00000, 0.660, 0.00000, 0.670, 0.00000
0.680, 0.00000, 0.690, 0.00000, 0.700, 0.00000, 0.710, 0.00000
0.720, 0.00000, 0.730, 0.00000, 0.740, 0.00000, 0.750, 0.00000
0.760, 0.00000, 0.770, 0.00000, 0.780, 0.00000, 0.790, 0.00000
0.800, 0.00000, 0.810, 0.00000, 0.820, 0.00000, 0.830, 0.00000
0.840, 0.00000, 0.850, 0.00000, 0.860, 0.00000, 0.870, 0.00000
0.880, 0.00000, 0.890, 0.00000, 0.900, 0.00000, 0.910, 0.00000
0.920, 0.00000, 0.930, 0.00000, 0.940, 0.00000, 0.950, 0.00000
0.960, 0.00000, 0.970, 0.00000, 0.980, 0.00000, 0.990, 0.00000
1.000, 0.00000, 1.010, 0.00000, 1.020, 0.00000, 1.030, 0.00000
1.040, 0.00000, 1.050, 0.00000, 1.060, 0.00000, 1.070, 0.00000
1.080, 0.00000, 1.090, 0.00000, 1.100, 0.00000, 1.110, 0.00000
1.120, 0.00000, 1.130, 0.00000, 1.140, 0.00000, 1.150, 0.00000
1.160, 0.00000, 1.170, 0.00000, 1.180, 0.00000, 1.190, 0.00000
1.200, 0.00000, 1.210, 0.00000, 1.220, 0.00000, 1.230, 0.00000
1.240, 0.00000, 1.250, 0.00000, 1.260, 0.00000, 1.270, 0.00000
1.280, 0.00000, 1.290, 0.00000, 1.300, 0.00000, 1.310, 0.00000
1.320, 0.00000, 1.330, 0.00000, 1.340, 0.00000, 1.350, 0.00000
1.360, 0.00000, 1.370, 0.00000, 1.380, 0.00000, 1.390, 0.00000
1.400, 0.00000, 1.410, 0.00000, 1.420, 0.00000, 1.430, 0.00000
1.440, 0.00000, 1.450, 0.00000, 1.460, 0.00000, 1.470, 0.00000
1.480, 0.00000, 1.490, 0.00000, 1.500, 0.00000, 1.510, 0.00000
1.520, 0.00000, 1.530, 0.00000, 1.540, 0.00000, 1.550, 0.00000
1.560, 0.00000, 1.570, 0.00000, 1.580, 0.00000, 1.590, 0.00000
1.600, 0.00000, 1.610, 0.00000, 1.620, 0.00000, 1.630, 0.00000
1.640, 0.00000, 1.650, 0.00000, 1.660, 0.00000, 1.670, 0.00000
1.680, 0.00000, 1.690, 0.00000, 1.700, 0.00000, 1.710, 0.00000
1.720, 0.00000, 1.730, 0.00000, 1.740, 0.00000, 1.750, 0.00000
1.760, 0.00000, 1.770, 0.00000, 1.780, 0.00000, 1.790, 0.00000
1.800, 0.00000, 1.810, 0.00000, 1.820, 0.00000, 1.830, 0.00000
1.840, 0.00000, 1.850, 0.00000, 1.860, 0.00000, 1.870, 0.00000
1.880, 0.00000, 1.890, 0.00000, 1.900, 0.00000, 1.910, 0.00000
1.920, 0.00000, 1.930, 0.00000, 1.940, 0.00000, 1.950, 0.00000
1.960, 0.00000, 1.970, 0.00000, 1.980, 0.00000, 1.990, 0.00000
2.000, 0.00000, 2.010, 8.13383, 2.020, 16.26766, 2.030, 24.40149
2.040, 32.53533, 2.050, 40.66916, 2.060, 38.63570, 2.070, 36.60224
2.080, 34.56878, 2.090, 32.53533, 2.100, 30.50187, 2.110, 28.46841
2.120, 26.43495, 2.130, 24.40149, 2.140, 22.36804, 2.150, 20.33458
2.160, 18.30112, 2.170, 16.26766, 2.180, 14.23421, 2.190, 12.20075
2.200, 10.16729, 2.210, 8.13383, 2.220, 6.10037, 2.230, 4.06692
2.240, 2.03346, 2.250, 0.00000, 2.260, 0.00000, 2.270, 0.00000
2.280, 0.00000, 2.290, 0.00000, 2.300, 0.00000, 2.310, 0.00000
2.320, 0.00000, 2.330, 0.00000, 2.340, 0.00000, 2.350, 0.00000
2.360, 0.00000, 2.370, 0.00000, 2.380, 0.00000, 2.390, 0.00000
2.400, 0.00000, 2.410, 0.00000, 2.420, 0.00000, 2.430, 0.00000
2.440, 0.00000, 2.450, 0.00000, 2.460, 0.00000, 2.470, 0.00000
2.480, 0.00000, 2.490, 0.00000, 2.500, 0.00000, 2.510, 0.00000
2.520, 0.00000, 2.530, 0.00000, 2.540, 0.00000, 2.550, 0.00000
2.560, 0.00000, 2.570, 0.00000, 2.580, 0.00000, 2.590, 0.00000
2.600, 0.00000, 2.610, 0.00000, 2.620, 0.00000, 2.630, 0.00000
2.640, 0.00000, 2.650, 0.00000, 2.660, 0.00000, 2.670, 0.00000
2.680, 0.00000, 2.690, 0.00000, 2.700, 0.00000, 2.710, 0.00000
2.720, 0.00000, 2.730, 0.00000, 2.740, 0.00000, 2.750, 0.00000
2.760, 0.00000, 2.770, 0.00000, 2.780, 0.00000, 2.790, 0.00000
2.800, 0.00000, 2.810, 0.00000, 2.820, 0.00000, 2.830, 0.00000
2.840, 0.00000, 2.850, 0.00000, 2.860, 0.00000, 2.870, 0.00000
2.880, 0.00000, 2.890, 0.00000, 2.900, 0.00000, 2.910, 0.00000
2.920, 0.00000, 2.930, 0.00000, 2.940, 0.00000, 2.950, 0.00000
2.960, 0.00000, 2.970, 0.00000, 2.980, 0.00000, 2.990, 0.00000
3.000, 0.00000, 3.010, 0.00000, 3.020, 0.00000, 3.030, 0.00000
3.040, 0.00000, 3.050, 0.00000, 3.060, 0.00000, 3.070, 0.00000
3.080, 0.00000, 3.090, 0.00000, 3.100, 0.00000, 3.110, 0.00000
3.120, 0.00000, 3.130, 0.00000, 3.140, 0.00000, 3.150, 0.00000
3.160, 0.00000, 3.170, 0.00000, 3.180, 0.00000, 3.190, 0.00000
3.200, 0.00000, 3.210, 0.00000, 3.220, 0.00000, 3.230, 0.00000
3.240, 0.00000, 3.250, 0.00000, 3.260, 0.00000, 3.270, 0.00000
3.280, 0.00000, 3.290, 0.00000, 3.300, 0.00000, 3.310, 0.00000
3.320, 0.00000, 3.330, 0.00000, 3.340, 0.00000, 3.350, 0.00000
3.360, 0.00000, 3.370, 0.00000, 3.380, 0.00000, 3.390, 0.00000
3.400, 0.00000, 3.410, 0.00000, 3.420, 0.00000, 3.430, 0.00000
3.440, 0.00000, 3.450, 0.00000, 3.460, 0.00000, 3.470, 0.00000
3.480, 0.00000, 3.490, 0.00000, 3.500, 0.00000, 3.510, 0.00000
3.520, 0.00000, 3.530, 0.00000, 3.540, 0.00000, 3.550, 0.00000
3.560, 0.00000, 3.570, 0.00000, 3.580, 0.00000, 3.590, 0.00000
3.600, 0.00000, 3.610, 0.00000, 3.620, 0.00000, 3.630, 0.00000
3.640, 0.00000, 3.650, 0.00000, 3.660, 0.00000, 3.670, 0.00000
3.680, 0.00000, 3.690, 0.00000, 3.700, 0.00000, 3.710, 0.00000
3.720, 0.00000, 3.730, 0.00000, 3.740, 0.00000, 3.750, 0.00000
3.760, 0.00000, 3.770, 0.00000, 3.780, 0.00000, 3.790, 0.00000
3.800, 0.00000, 3.810, 0.00000, 3.820, 0.00000, 3.830, 0.00000
3.840, 0.00000, 3.850, 0.00000, 3.860, 0.00000, 3.870, 0.00000
3.880, 0.00000, 3.890, 0.00000, 3.900, 0.00000, 3.910, 0.00000
3.920, 0.00000, 3.930, 0.00000, 3.940, 0.00000, 3.950, 0.00000
3.960, 0.00000, 3.970, 0.00000, 3.980, 0.00000, 3.990, 0.00000
4.000, 0.00000, 4.010, 7.97868, 4.020, 15.95737, 4.030, 23.93605
4.040, 31.91473, 4.050, 39.89342, 4.060, 37.89875, 4.070, 35.90408
4.080, 33.90940, 4.090, 31.91473, 4.100, 29.92006, 4.110, 27.92539
4.120, 25.93072, 4.130, 23.93605, 4.140, 21.94138, 4.150, 19.94671
4.160, 17.95204, 4.170, 15.95737, 4.180, 13.96270, 4.190, 11.96803
4.200, 9.97335, 4.210, 7.97868, 4.220, 5.98401, 4.230, 3.98934
4.240, 1.99467, 4.250, 0.00000, 4.260, 0.00000, 4.270, 0.00000
4.280, 0.00000, 4.290, 0.00000, 4.300, 0.00000, 4.310, 0.00000
4.320, 0.00000, 4.330, 0.00000, 4.340, 0.00000, 4.350, 0.00000
4.360, 0.00000, 4.370, 0.00000, 4.380, 0.00000, 4.390, 0.00000
4.400, 0.00000, 4.410, 0.00000, 4.420, 0.00000, 4.430, 0.00000
4.440, 0.00000, 4.450, 0.00000, 4.460, 0.00000, 4.470, 0.00000
4.480, 0.00000, 4.490, 0.00000, 4.500, 0.00000, 4.510, 0.00000
4.520, 0.00000, 4.530, 0.00000, 4.540, 0.00000, 4.550, 0.00000
4.560, 0.00000, 4.570, 0.00000, 4.580, 0.00000, 4.590, 0.00000
4.600, 0.00000, 4.610, 0.00000, 4.620, 0.00000, 4.630, 0.00000
4.640, 0.00000, 4.650, 0.00000, 4.660, 0.00000, 4.670, 0.00000
4.680, 0.00000, 4.690, 0.00000, 4.700, 0.00000, 4.710, 0.00000
4.720, 0.00000, 4.730, 0.00000, 4.740, 0.00000, 4.750, 0.00000
4.760, 0.00000, 4.770, 0.00000, 4.780, 0.00000, 4.790, 0.00000
4.800, 0.00000, 4.810, 0.00000, 4.820, 0.00000, 4.830, 0.00000
4.840, 0.00000, 4.850, 0.00000, 4.860, 0.00000, 4.870, 0.00000
4.880, 0.00000, 4.890, 0.00000, 4.900, 0.00000, 4.910, 0.00000
4.920, 0.00000, 4.930, 0.00000, 4.940, 0.00000, 4.950, 0.00000
4.960, 0.00000, 4.970, 0.00000, 4.980, 0.00000, 4.990, 0.00000
5.000, 0.00000, 5.010, 0.00000, 5.020, 0.00000, 5.030, 0.00000
5.040, 0.00000, 5.050, 0.00000, 5.060, 0.00000, 5.070, 0.00000
5.080, 0.00000, 5.090, 0.00000, 5.100, 0.00000, 5.110, 0.00000
5.120, 0.00000, 5.130, 0.00000, 5.140, 0.00000, 5.150, 0.00000
5.160, 0.00000, 5.170, 0.00000, 5.180, 0.00000, 5.190, 0.00000
5.200, 0.00000, 5.210, 0.00000, 5.220, 0.00000, 5.230, 0.00000
5.240, 0.00000, 5.250, 0.00000, 5.260, 0.00000, 5.270, 0.00000
5.280, 0.00000, 5.290, 0.00000, 5.300, 0.00000, 5.310, 0.00000
5.320, 0.00000, 5.330, 0.00000, 5.340, 0.00000, 5.350, 0.00000
5.360, 0.00000, 5.370, 0.00000, 5.380, 0.00000, 5.390, 0.00000
5.400, 0.00000, 5.410, 0.00000, 5.420, 0.00000, 5.430, 0.00000
5.440, 0.00000, 5.450, 0.00000, 5.460, 0.00000, 5.470, 0.00000
5.480, 0.00000, 5.490, 0.00000, 5.500, 0.00000, 5.510, 0.00000
5.520, 0.00000, 5.530, 0.00000, 5.540, 0.00000, 5.550, 0.00000
5.560, 0.00000, 5.570, 0.00000, 5.580, 0.00000, 5.590, 0.00000
5.600, 0.00000, 5.610, 0.00000, 5.620, 0.00000, 5.630, 0.00000
5.640, 0.00000, 5.650, 0.00000, 5.660, 0.00000, 5.670, 0.00000
5.680, 0.00000, 5.690, 0.00000, 5.700, 0.00000, 5.710, 0.00000
5.720, 0.00000, 5.730, 0.00000, 5.740, 0.00000, 5.750, 0.00000
5.760, 0.00000, 5.770, 0.00000, 5.780, 0.00000, 5.790, 0.00000
5.800, 0.00000, 5.810, 0.00000, 5.820, 0.00000, 5.830, 0.00000
5.840, 0.00000, 5.850, 0.00000, 5.860, 0.00000, 5.870, 0.00000
5.880, 0.00000, 5.890, 0.00000, 5.900, 0.00000, 5.910, 0.00000
5.920, 0.00000, 5.930, 0.00000, 5.940, 0.00000, 5.950, 0.00000
5.960, 0.00000, 5.970, 0.00000, 5.980, 0.00000, 5.990, 0.00000
6.000, 0.00000, 6.010, 7.85063, 6.020, 15.70127, 6.030, 23.55190
6.040, 31.40253, 6.050, 39.25317, 6.060, 37.29051, 6.070, 35.32785
6.080, 33.36519, 6.090, 31.40253, 6.100, 29.43987, 6.110, 27.47722
6.120, 25.51456, 6.130, 23.55190, 6.140, 21.58924, 6.150, 19.62658
6.160, 17.66392, 6.170, 15.70127, 6.180, 13.73861, 6.190, 11.77595
6.200, 9.81329, 6.210, 7.85063, 6.220, 5.88797, 6.230, 3.92532
6.240, 1.96266, 6.250, 0.00000, 6.260, 0.00000, 6.270, 0.00000
6.280, 0.00000, 6.290, 0.00000, 6.300, 0.00000, 6.310, 0.00000
6.320, 0.00000, 6.330, 0.00000, 6.340, 0.00000, 6.350, 0.00000
6.360, 0.00000, 6.370, 0.00000, 6.380, 0.00000, 6.390, 0.00000
6.400, 0.00000, 6.410, 0.00000, 6.420, 0.00000, 6.430, 0.00000
6.440, 0.00000, 6.450, 0.00000, 6.460, 0.00000, 6.470, 0.00000
6.480, 0.00000, 6.490, 0.00000, 6.500, 0.00000, 6.510, 0.00000
6.520, 0.00000, 6.530, 0.00000, 6.540, 0.00000, 6.550, 0.00000
6.560, 0.00000, 6.570, 0.00000, 6.580, 0.00000, 6.590, 0.00000
6.600, 0.00000, 6.610, 0.00000, 6.620, 0.00000, 6.630, 0.00000
6.640, 0.00000, 6.650, 0.00000, 6.660, 0.00000, 6.670, 0.00000
6.680, 0.00000, 6.690, 0.00000, 6.700, 0.00000, 6.710, 0.00000
6.720, 0.00000, 6.730, 0.00000, 6.740, 0.00000, 6.750, 0.00000
6.760, 0.00000, 6.770, 0.00000, 6.780, 0.00000, 6.790, 0.00000
6.800, 0.00000, 6.810, 0.00000, 6.820, 0.00000, 6.830, 0.00000
6.840, 0.00000, 6.850, 0.00000, 6.860, 0.00000, 6.870, 0.00000
6.880, 0.00000, 6.890, 0.00000, 6.900, 0.00000, 6.910, 0.00000
6.920, 0.00000, 6.930, 0.00000, 6.940, 0.00000, 6.950, 0.00000
6.960, 0.00000, 6.970, 0.00000, 6.980, 0.00000, 6.990, 0.00000
7.000, 0.00000, 7.010, 0.00000, 7.020, 0.00000, 7.030, 0.00000
7.040, 0.00000, 7.050, 0.00000, 7.060, 0.00000, 7.070, 0.00000
7.080, 0.00000, 7.090, 0.00000, 7.100, 0.00000, 7.110, 0.00000
7.120, 0.00000, 7.130, 0.00000, 7.140, 0.00000, 7.150, 0.00000
7.160, 0.00000, 7.170, 0.00000, 7.180, 0.00000, 7.190, 0.00000
7.200, 0.00000, 7.210, 0.00000, 7.220, 0.00000, 7.230, 0.00000
7.240, 0.00000, 7.250, 0.00000, 7.260, 0.00000, 7.270, 0.00000
7.280, 0.00000, 7.290, 0.00000, 7.300, 0.00000, 7.310, 0.00000
7.320, 0.00000, 7.330, 0.00000, 7.340, 0.00000, 7.350, 0.00000
7.360, 0.00000, 7.370, 0.00000, 7.380, 0.00000, 7.390, 0.00000
7.400, 0.00000, 7.410, 0.00000, 7.420, 0.00000, 7.430, 0.00000
7.440, 0.00000, 7.450, 0.00000, 7.460, 0.00000, 7.470, 0.00000
7.480, 0.00000, 7.490, 0.00000, 7.500, 0.00000, 7.510, 0.00000
7.520, 0.00000, 7.530, 0.00000, 7.540, 0.00000, 7.550, 0.00000
7.560, 0.00000, 7.570, 0.00000, 7.580, 0.00000, 7.590, 0.00000
7.600, 0.00000, 7.610, 0.00000, 7.620, 0.00000, 7.630, 0.00000
7.640, 0.00000, 7.650, 0.00000, 7.660, 0.00000, 7.670, 0.00000
7.680, 0.00000, 7.690, 0.00000, 7.700, 0.00000, 7.710, 0.00000
7.720, 0.00000, 7.730, 0.00000, 7.740, 0.00000, 7.750, 0.00000
7.760, 0.00000, 7.770, 0.00000, 7.780, 0.00000, 7.790, 0.00000
7.800, 0.00000, 7.810, 0.00000, 7.820, 0.00000, 7.830, 0.00000
7.840, 0.00000, 7.850, 0.00000, 7.860, 0.00000, 7.870, 0.00000
7.880, 0.00000, 7.890, 0.00000, 7.900, 0.00000, 7.910, 0.00000
7.920, 0.00000, 7.930, 0.00000, 7.940, 0.00000, 7.950, 0.00000
7.960, 0.00000, 7.970, 0.00000, 7.980, 0.00000, 7.990, 0.00000
8.000, 0.00000, 8.010, 7.74017, 8.020, 15.48033, 8.030, 23.22050
8.040, 30.96067, 8.050, 38.70083, 8.060, 36.76579, 8.070, 34.83075
8.080, 32.89571, 8.090, 30.96067, 8.100, 29.02562, 8.110, 27.09058
8.120, 25.15554, 8.130, 23.22050, 8.140, 21.28546, 8.150, 19.35042
8.160, 17.41537, 8.170, 15.48033, 8.180, 13.54529, 8.190, 11.61025
8.200, 9.67521, 8.210, 7.74017, 8.220, 5.80512, 8.230, 3.87008
8.240, 1.93504, 8.250, 0.00000, 8.260, 0.00000, 8.270, 0.00000
8.280, 0.00000, 8.290, 0.00000, 8.300, 0.00000, 8.310, 0.00000
8.320, 0.00000, 8.330, 0.00000, 8.340, 0.00000, 8.350, 0.00000
8.360, 0.00000, 8.370, 0.00000, 8.380, 0.00000, 8.390, 0.00000
8.400, 0.00000, 8.410, 0.00000, 8.420, 0.00000, 8.430, 0.00000
8.440, 0.00000, 8.450, 0.00000, 8.460, 0.00000, 8.470, 0.00000
8.480, 0.00000, 8.490, 0.00000, 8.500, 0.00000, 8.510, 0.00000
8.520, 0.00000, 8.530, 0.00000, 8.540, 0.00000, 8.550, 0.00000
8.560, 0.00000, 8.570, 0.00000, 8.580, 0.00000, 8.590, 0.00000
8.600, 0.00000, 8.610, 0.00000, 8.620, 0.00000, 8.630, 0.00000
8.640, 0.00000, 8.650, 0.00000, 8.660, 0.00000, 8.670, 0.00000
8.680, 0.00000, 8.690, 0.00000, 8.700, 0.00000, 8.710, 0.00000
8.720, 0.00000, 8.730, 0.00000, 8.740, 0.00000, 8.750, 0.00000
8.760, 0.00000, 8.770, 0.00000, 8.780, 0.00000, 8.790, 0.00000
8.800, 0.00000, 8.810, 0.00000, 8.820, 0.00000, 8.830, 0.00000
8.840, 0.00000, 8.850, 0.00000, 8.860, 0.00000, 8.870, 0.00000
8.880, 0.00000, 8.890, 0.00000, 8.900, 0.00000, 8.910, 0.00000
8.920, 0.00000, 8.930, 0.00000, 8.940, 0.00000, 8.950, 0.00000
8.960, 0.00000, 8.970, 0.00000, 8.980, 0.00000, 8.990, 0.00000
9.000, 0.00000, 9.010, 0.00000, 9.020, 0.00000, 9.030, 0.00000
9.040, 0.00000, 9.050, 0.00000, 9.060, 0.00000, 9.070, 0.00000
9.080, 0.00000, 9.090, 0.00000, 9.100, 0.00000, 9.110, 0.00000
9.120, 0.00000, 9.130, 0.00000, 9.140, 0.00000, 9.150, 0.00000
9.160, 0.00000, 9.170, 0.00000, 9.180, 0.00000, 9.190, 0.00000
9.200, 0.00000, 9.210, 0.00000, 9.220, 0.00000, 9.230, 0.00000
9.240, 0.00000, 9.250, 0.00000, 9.260, 0.00000, 9.270, 0.00000
9.280, 0.00000, 9.290, 0.00000, 9.300, 0.00000, 9.310, 0.00000
9.320, 0.00000, 9.330, 0.00000, 9.340, 0.00000, 9.350, 0.00000
9.360, 0.00000, 9.370, 0.00000, 9.380, 0.00000, 9.390, 0.00000
9.400, 0.00000, 9.410, 0.00000, 9.420, 0.00000, 9.430, 0.00000
9.440, 0.00000, 9.450, 0.00000, 9.460, 0.00000, 9.470, 0.00000
9.480, 0.00000, 9.490, 0.00000, 9.500, 0.00000, 9.510, 0.00000
9.520, 0.00000, 9.530, 0.00000, 9.540, 0.00000, 9.550, 0.00000
9.560, 0.00000, 9.570, 0.00000, 9.580, 0.00000, 9.590, 0.00000
9.600, 0.00000, 9.610, 0.00000, 9.620, 0.00000, 9.630, 0.00000
9.640, 0.00000, 9.650, 0.00000, 9.660, 0.00000, 9.670, 0.00000
9.680, 0.00000, 9.690, 0.00000, 9.700, 0.00000, 9.710, 0.00000
9.720, 0.00000, 9.730, 0.00000, 9.740, 0.00000, 9.750, 0.00000
9.760, 0.00000, 9.770, 0.00000, 9.780, 0.00000, 9.790, 0.00000
9.800, 0.00000, 9.810, 0.00000, 9.820, 0.00000, 9.830, 0.00000
9.840, 0.00000, 9.850, 0.00000, 9.860, 0.00000, 9.870, 0.00000
9.880, 0.00000, 9.890, 0.00000, 9.900, 0.00000, 9.910, 0.00000
9.920, 0.00000, 9.930, 0.00000, 9.940, 0.00000, 9.950, 0.00000
9.960, 0.00000, 9.970, 0.00000, 9.980, 0.00000, 9.990, 0.00000
** 
** MATERIALS
** 
*Material, name="Concrete C30/37"
*Density
2300.,
*Elastic
 3e+10, 0.18
** 
** INTERACTION PROPERTIES
** 
*Surface Interaction, name=BLOCK-FILTER
*Friction
 0.6,
*Surface Behavior, pressure-overclosure=HARD
*Surface Interaction, name=IntProp-1
*Friction
 0.85,
*Surface Behavior, pressure-overclosure=HARD
** ----------------------------------------------------------------
** 
** STEP: Loading
** 
*Step, name=Loading, nlgeom=YES
Gravity
*Dynamic, Explicit
, 12.
*Bulk Viscosity
0.06, 1.2
** 
** BOUNDARY CONDITIONS
** 
** Name: BC-1 Type: Displacement/Rotation
*Boundary
_PickedSet484, 1, 1
_PickedSet484, 2, 2
_PickedSet484, 3, 3
_PickedSet484, 4, 4
_PickedSet484, 5, 5
_PickedSet484, 6, 6
** 
** LOADS
** 
** Name: Gravity   Type: Gravity
*Dload
_PickedSet426, GRAV, 9.81, 0., -1., 0.
** Name: Row1   Type: Pressure
*Dsload, amplitude=Row1
_PickedSurf456, P, -1.
** Name: Row2   Type: Pressure
*Dsload, amplitude=Row2
_PickedSurf457, P, -1.
** Name: Row3   Type: Pressure
*Dsload, amplitude=Row3
_PickedSurf458, P, -1.
** Name: Row4   Type: Pressure
*Dsload, amplitude=Row4
_PickedSurf459, P, -1.
** Name: Row5   Type: Pressure
*Dsload, amplitude=Row5
_PickedSurf460, P, -1.
** Name: Row6   Type: Pressure
*Dsload, amplitude=Row6
_PickedSurf461, P, -1.
** Name: Row7   Type: Pressure
*Dsload, amplitude=Row7
_PickedSurf462, P, -1.
** Name: Row8   Type: Pressure
*Dsload, amplitude=Row8
_PickedSurf463, P, -1.
** Name: Row9   Type: Pressure
*Dsload, amplitude=Row9
_PickedSurf464, P, -1.
** Name: Row10   Type: Pressure
*Dsload, amplitude=Row10
_PickedSurf465, P, -1.
** Name: Row11   Type: Pressure
*Dsload, amplitude=Row11
_PickedSurf466, P, -1.
** Name: Row12   Type: Pressure
*Dsload, amplitude=Row12
_PickedSurf467, P, -1.
** Name: Row13   Type: Pressure
*Dsload, amplitude=Row13
_PickedSurf468, P, -1.
** Name: Row14   Type: Pressure
*Dsload, amplitude=Row14
_PickedSurf469, P, -1.
** Name: Row15   Type: Pressure
*Dsload, amplitude=Row15
_PickedSurf470, P, -1.
** Name: Row16   Type: Pressure
*Dsload, amplitude=Row16
_PickedSurf471, P, -1.
** Name: Row17   Type: Pressure
*Dsload, amplitude=Row17
_PickedSurf472, P, -1.
** Name: Row18   Type: Pressure
*Dsload, amplitude=Row18
_PickedSurf473, P, -1.
** Name: Row19   Type: Pressure
*Dsload, amplitude=Row19
_PickedSurf474, P, -1.
** Name: Row20   Type: Pressure
*Dsload, amplitude=Row20
_PickedSurf475, P, -1.
** Name: Row21   Type: Pressure
*Dsload, amplitude=Row21
_PickedSurf476, P, -1.
** Name: Row22   Type: Pressure
*Dsload, amplitude=Row22
_PickedSurf477, P, -1.
** 
** INTERACTIONS
** 
** Interaction: Int-1
*Contact, op=NEW
*Contact Inclusions, ALL EXTERIOR
*Contact Property Assignment
 ,  , IntProp-1
Bottoms , Dike.Surf-2 , BLOCK-FILTER
** 
** OUTPUT REQUESTS
** 
*Restart, write, number interval=1, time marks=NO
** 
** FIELD OUTPUT: F-Output-1
** 
*Output, field, number interval=1200
*Node Output
A, RF, RT, U, V
*Element Output, directions=YES
S, SVAVG
*Contact Output
CFORCE, CSTRESS
** 
** HISTORY OUTPUT: H-Output-1
** 
*Output, history, variable=PRESELECT
*End Step
